c colour-code schedule space d=11 D=11 R=1 mode=free T=6 space=False
p cnf 2637 22098
1 2 0
-1 -2 0
3 4 0
-3 -4 0
5 6 0
-5 -6 0
7 8 0
-7 -8 0
9 10 0
-9 -10 0
11 12 0
-11 -12 0
-1 -7 3 0
-1 -9 5 0
-3 -8 1 0
-3 -11 5 0
-5 -10 1 0
-5 -12 3 0
-2 -3 7 0
-2 -5 9 0
-7 -4 2 0
-7 -11 9 0
-9 -6 2 0
-9 -12 7 0
-4 -1 8 0
-4 -5 11 0
-8 -2 4 0
-8 -9 11 0
-11 -6 4 0
-11 -10 8 0
-6 -1 10 0
-6 -3 12 0
-10 -2 6 0
-10 -7 12 0
-12 -4 6 0
-12 -8 10 0
13 14 0
-13 -14 0
15 16 0
-15 -16 0
17 18 0
-17 -18 0
19 20 0
-19 -20 0
21 22 0
-21 -22 0
23 24 0
-23 -24 0
-13 -19 15 0
-13 -21 17 0
-15 -20 13 0
-15 -23 17 0
-17 -22 13 0
-17 -24 15 0
-14 -15 19 0
-14 -17 21 0
-19 -16 14 0
-19 -23 21 0
-21 -18 14 0
-21 -24 19 0
-16 -13 20 0
-16 -17 23 0
-20 -14 16 0
-20 -21 23 0
-23 -18 16 0
-23 -22 20 0
-18 -13 22 0
-18 -15 24 0
-22 -14 18 0
-22 -19 24 0
-24 -16 18 0
-24 -20 22 0
25 26 0
-25 -26 0
27 28 0
-27 -28 0
29 30 0
-29 -30 0
31 32 0
-31 -32 0
33 34 0
-33 -34 0
35 36 0
-35 -36 0
-25 -31 27 0
-25 -33 29 0
-27 -32 25 0
-27 -35 29 0
-29 -34 25 0
-29 -36 27 0
-26 -27 31 0
-26 -29 33 0
-31 -28 26 0
-31 -35 33 0
-33 -30 26 0
-33 -36 31 0
-28 -25 32 0
-28 -29 35 0
-32 -26 28 0
-32 -33 35 0
-35 -30 28 0
-35 -34 32 0
-30 -25 34 0
-30 -27 36 0
-34 -26 30 0
-34 -31 36 0
-36 -28 30 0
-36 -32 34 0
37 38 0
-37 -38 0
39 40 0
-39 -40 0
41 42 0
-41 -42 0
43 44 0
-43 -44 0
45 46 0
-45 -46 0
47 48 0
-47 -48 0
-37 -43 39 0
-37 -45 41 0
-39 -44 37 0
-39 -47 41 0
-41 -46 37 0
-41 -48 39 0
-38 -39 43 0
-38 -41 45 0
-43 -40 38 0
-43 -47 45 0
-45 -42 38 0
-45 -48 43 0
-40 -37 44 0
-40 -41 47 0
-44 -38 40 0
-44 -45 47 0
-47 -42 40 0
-47 -46 44 0
-42 -37 46 0
-42 -39 48 0
-46 -38 42 0
-46 -43 48 0
-48 -40 42 0
-48 -44 46 0
49 50 0
-49 -50 0
51 52 0
-51 -52 0
53 54 0
-53 -54 0
55 56 0
-55 -56 0
57 58 0
-57 -58 0
59 60 0
-59 -60 0
-49 -55 51 0
-49 -57 53 0
-51 -56 49 0
-51 -59 53 0
-53 -58 49 0
-53 -60 51 0
-50 -51 55 0
-50 -53 57 0
-55 -52 50 0
-55 -59 57 0
-57 -54 50 0
-57 -60 55 0
-52 -49 56 0
-52 -53 59 0
-56 -50 52 0
-56 -57 59 0
-59 -54 52 0
-59 -58 56 0
-54 -49 58 0
-54 -51 60 0
-58 -50 54 0
-58 -55 60 0
-60 -52 54 0
-60 -56 58 0
61 62 0
-61 -62 0
63 64 0
-63 -64 0
65 66 0
-65 -66 0
67 68 0
-67 -68 0
69 70 0
-69 -70 0
71 72 0
-71 -72 0
-61 -67 63 0
-61 -69 65 0
-63 -68 61 0
-63 -71 65 0
-65 -70 61 0
-65 -72 63 0
-62 -63 67 0
-62 -65 69 0
-67 -64 62 0
-67 -71 69 0
-69 -66 62 0
-69 -72 67 0
-64 -61 68 0
-64 -65 71 0
-68 -62 64 0
-68 -69 71 0
-71 -66 64 0
-71 -70 68 0
-66 -61 70 0
-66 -63 72 0
-70 -62 66 0
-70 -67 72 0
-72 -64 66 0
-72 -68 70 0
73 74 0
-73 -74 0
75 76 0
-75 -76 0
77 78 0
-77 -78 0
79 80 0
-79 -80 0
81 82 0
-81 -82 0
83 84 0
-83 -84 0
85 86 0
-85 -86 0
87 88 0
-87 -88 0
89 90 0
-89 -90 0
91 92 0
-91 -92 0
93 94 0
-93 -94 0
95 96 0
-95 -96 0
97 98 0
-97 -98 0
99 100 0
-99 -100 0
101 102 0
-101 -102 0
-73 -83 75 0
-73 -85 77 0
-73 -87 79 0
-73 -89 81 0
-75 -84 73 0
-75 -91 77 0
-75 -93 79 0
-75 -95 81 0
-77 -86 73 0
-77 -92 75 0
-77 -97 79 0
-77 -99 81 0
-79 -88 73 0
-79 -94 75 0
-79 -98 77 0
-79 -101 81 0
-81 -90 73 0
-81 -96 75 0
-81 -100 77 0
-81 -102 79 0
-74 -75 83 0
-74 -77 85 0
-74 -79 87 0
-74 -81 89 0
-83 -76 74 0
-83 -91 85 0
-83 -93 87 0
-83 -95 89 0
-85 -78 74 0
-85 -92 83 0
-85 -97 87 0
-85 -99 89 0
-87 -80 74 0
-87 -94 83 0
-87 -98 85 0
-87 -101 89 0
-89 -82 74 0
-89 -96 83 0
-89 -100 85 0
-89 -102 87 0
-76 -73 84 0
-76 -77 91 0
-76 -79 93 0
-76 -81 95 0
-84 -74 76 0
-84 -85 91 0
-84 -87 93 0
-84 -89 95 0
-91 -78 76 0
-91 -86 84 0
-91 -97 93 0
-91 -99 95 0
-93 -80 76 0
-93 -88 84 0
-93 -98 91 0
-93 -101 95 0
-95 -82 76 0
-95 -90 84 0
-95 -100 91 0
-95 -102 93 0
-78 -73 86 0
-78 -75 92 0
-78 -79 97 0
-78 -81 99 0
-86 -74 78 0
-86 -83 92 0
-86 -87 97 0
-86 -89 99 0
-92 -76 78 0
-92 -84 86 0
-92 -93 97 0
-92 -95 99 0
-97 -80 78 0
-97 -88 86 0
-97 -94 92 0
-97 -101 99 0
-99 -82 78 0
-99 -90 86 0
-99 -96 92 0
-99 -102 97 0
-80 -73 88 0
-80 -75 94 0
-80 -77 98 0
-80 -81 101 0
-88 -74 80 0
-88 -83 94 0
-88 -85 98 0
-88 -89 101 0
-94 -76 80 0
-94 -84 88 0
-94 -91 98 0
-94 -95 101 0
-98 -78 80 0
-98 -86 88 0
-98 -92 94 0
-98 -99 101 0
-101 -82 80 0
-101 -90 88 0
-101 -96 94 0
-101 -100 98 0
-82 -73 90 0
-82 -75 96 0
-82 -77 100 0
-82 -79 102 0
-90 -74 82 0
-90 -83 96 0
-90 -85 100 0
-90 -87 102 0
-96 -76 82 0
-96 -84 90 0
-96 -91 100 0
-96 -93 102 0
-100 -78 82 0
-100 -86 90 0
-100 -92 96 0
-100 -97 102 0
-102 -80 82 0
-102 -88 90 0
-102 -94 96 0
-102 -98 100 0
103 104 0
-103 -104 0
105 106 0
-105 -106 0
107 108 0
-107 -108 0
109 110 0
-109 -110 0
111 112 0
-111 -112 0
113 114 0
-113 -114 0
115 116 0
-115 -116 0
117 118 0
-117 -118 0
119 120 0
-119 -120 0
121 122 0
-121 -122 0
123 124 0
-123 -124 0
125 126 0
-125 -126 0
127 128 0
-127 -128 0
129 130 0
-129 -130 0
131 132 0
-131 -132 0
-103 -113 105 0
-103 -115 107 0
-103 -117 109 0
-103 -119 111 0
-105 -114 103 0
-105 -121 107 0
-105 -123 109 0
-105 -125 111 0
-107 -116 103 0
-107 -122 105 0
-107 -127 109 0
-107 -129 111 0
-109 -118 103 0
-109 -124 105 0
-109 -128 107 0
-109 -131 111 0
-111 -120 103 0
-111 -126 105 0
-111 -130 107 0
-111 -132 109 0
-104 -105 113 0
-104 -107 115 0
-104 -109 117 0
-104 -111 119 0
-113 -106 104 0
-113 -121 115 0
-113 -123 117 0
-113 -125 119 0
-115 -108 104 0
-115 -122 113 0
-115 -127 117 0
-115 -129 119 0
-117 -110 104 0
-117 -124 113 0
-117 -128 115 0
-117 -131 119 0
-119 -112 104 0
-119 -126 113 0
-119 -130 115 0
-119 -132 117 0
-106 -103 114 0
-106 -107 121 0
-106 -109 123 0
-106 -111 125 0
-114 -104 106 0
-114 -115 121 0
-114 -117 123 0
-114 -119 125 0
-121 -108 106 0
-121 -116 114 0
-121 -127 123 0
-121 -129 125 0
-123 -110 106 0
-123 -118 114 0
-123 -128 121 0
-123 -131 125 0
-125 -112 106 0
-125 -120 114 0
-125 -130 121 0
-125 -132 123 0
-108 -103 116 0
-108 -105 122 0
-108 -109 127 0
-108 -111 129 0
-116 -104 108 0
-116 -113 122 0
-116 -117 127 0
-116 -119 129 0
-122 -106 108 0
-122 -114 116 0
-122 -123 127 0
-122 -125 129 0
-127 -110 108 0
-127 -118 116 0
-127 -124 122 0
-127 -131 129 0
-129 -112 108 0
-129 -120 116 0
-129 -126 122 0
-129 -132 127 0
-110 -103 118 0
-110 -105 124 0
-110 -107 128 0
-110 -111 131 0
-118 -104 110 0
-118 -113 124 0
-118 -115 128 0
-118 -119 131 0
-124 -106 110 0
-124 -114 118 0
-124 -121 128 0
-124 -125 131 0
-128 -108 110 0
-128 -116 118 0
-128 -122 124 0
-128 -129 131 0
-131 -112 110 0
-131 -120 118 0
-131 -126 124 0
-131 -130 128 0
-112 -103 120 0
-112 -105 126 0
-112 -107 130 0
-112 -109 132 0
-120 -104 112 0
-120 -113 126 0
-120 -115 130 0
-120 -117 132 0
-126 -106 112 0
-126 -114 120 0
-126 -121 130 0
-126 -123 132 0
-130 -108 112 0
-130 -116 120 0
-130 -122 126 0
-130 -127 132 0
-132 -110 112 0
-132 -118 120 0
-132 -124 126 0
-132 -128 130 0
133 134 0
-133 -134 0
135 136 0
-135 -136 0
137 138 0
-137 -138 0
139 140 0
-139 -140 0
141 142 0
-141 -142 0
143 144 0
-143 -144 0
145 146 0
-145 -146 0
147 148 0
-147 -148 0
149 150 0
-149 -150 0
151 152 0
-151 -152 0
153 154 0
-153 -154 0
155 156 0
-155 -156 0
157 158 0
-157 -158 0
159 160 0
-159 -160 0
161 162 0
-161 -162 0
-133 -143 135 0
-133 -145 137 0
-133 -147 139 0
-133 -149 141 0
-135 -144 133 0
-135 -151 137 0
-135 -153 139 0
-135 -155 141 0
-137 -146 133 0
-137 -152 135 0
-137 -157 139 0
-137 -159 141 0
-139 -148 133 0
-139 -154 135 0
-139 -158 137 0
-139 -161 141 0
-141 -150 133 0
-141 -156 135 0
-141 -160 137 0
-141 -162 139 0
-134 -135 143 0
-134 -137 145 0
-134 -139 147 0
-134 -141 149 0
-143 -136 134 0
-143 -151 145 0
-143 -153 147 0
-143 -155 149 0
-145 -138 134 0
-145 -152 143 0
-145 -157 147 0
-145 -159 149 0
-147 -140 134 0
-147 -154 143 0
-147 -158 145 0
-147 -161 149 0
-149 -142 134 0
-149 -156 143 0
-149 -160 145 0
-149 -162 147 0
-136 -133 144 0
-136 -137 151 0
-136 -139 153 0
-136 -141 155 0
-144 -134 136 0
-144 -145 151 0
-144 -147 153 0
-144 -149 155 0
-151 -138 136 0
-151 -146 144 0
-151 -157 153 0
-151 -159 155 0
-153 -140 136 0
-153 -148 144 0
-153 -158 151 0
-153 -161 155 0
-155 -142 136 0
-155 -150 144 0
-155 -160 151 0
-155 -162 153 0
-138 -133 146 0
-138 -135 152 0
-138 -139 157 0
-138 -141 159 0
-146 -134 138 0
-146 -143 152 0
-146 -147 157 0
-146 -149 159 0
-152 -136 138 0
-152 -144 146 0
-152 -153 157 0
-152 -155 159 0
-157 -140 138 0
-157 -148 146 0
-157 -154 152 0
-157 -161 159 0
-159 -142 138 0
-159 -150 146 0
-159 -156 152 0
-159 -162 157 0
-140 -133 148 0
-140 -135 154 0
-140 -137 158 0
-140 -141 161 0
-148 -134 140 0
-148 -143 154 0
-148 -145 158 0
-148 -149 161 0
-154 -136 140 0
-154 -144 148 0
-154 -151 158 0
-154 -155 161 0
-158 -138 140 0
-158 -146 148 0
-158 -152 154 0
-158 -159 161 0
-161 -142 140 0
-161 -150 148 0
-161 -156 154 0
-161 -160 158 0
-142 -133 150 0
-142 -135 156 0
-142 -137 160 0
-142 -139 162 0
-150 -134 142 0
-150 -143 156 0
-150 -145 160 0
-150 -147 162 0
-156 -136 142 0
-156 -144 150 0
-156 -151 160 0
-156 -153 162 0
-160 -138 142 0
-160 -146 150 0
-160 -152 156 0
-160 -157 162 0
-162 -140 142 0
-162 -148 150 0
-162 -154 156 0
-162 -158 160 0
163 164 0
-163 -164 0
165 166 0
-165 -166 0
167 168 0
-167 -168 0
169 170 0
-169 -170 0
171 172 0
-171 -172 0
173 174 0
-173 -174 0
175 176 0
-175 -176 0
177 178 0
-177 -178 0
179 180 0
-179 -180 0
181 182 0
-181 -182 0
183 184 0
-183 -184 0
185 186 0
-185 -186 0
187 188 0
-187 -188 0
189 190 0
-189 -190 0
191 192 0
-191 -192 0
-163 -173 165 0
-163 -175 167 0
-163 -177 169 0
-163 -179 171 0
-165 -174 163 0
-165 -181 167 0
-165 -183 169 0
-165 -185 171 0
-167 -176 163 0
-167 -182 165 0
-167 -187 169 0
-167 -189 171 0
-169 -178 163 0
-169 -184 165 0
-169 -188 167 0
-169 -191 171 0
-171 -180 163 0
-171 -186 165 0
-171 -190 167 0
-171 -192 169 0
-164 -165 173 0
-164 -167 175 0
-164 -169 177 0
-164 -171 179 0
-173 -166 164 0
-173 -181 175 0
-173 -183 177 0
-173 -185 179 0
-175 -168 164 0
-175 -182 173 0
-175 -187 177 0
-175 -189 179 0
-177 -170 164 0
-177 -184 173 0
-177 -188 175 0
-177 -191 179 0
-179 -172 164 0
-179 -186 173 0
-179 -190 175 0
-179 -192 177 0
-166 -163 174 0
-166 -167 181 0
-166 -169 183 0
-166 -171 185 0
-174 -164 166 0
-174 -175 181 0
-174 -177 183 0
-174 -179 185 0
-181 -168 166 0
-181 -176 174 0
-181 -187 183 0
-181 -189 185 0
-183 -170 166 0
-183 -178 174 0
-183 -188 181 0
-183 -191 185 0
-185 -172 166 0
-185 -180 174 0
-185 -190 181 0
-185 -192 183 0
-168 -163 176 0
-168 -165 182 0
-168 -169 187 0
-168 -171 189 0
-176 -164 168 0
-176 -173 182 0
-176 -177 187 0
-176 -179 189 0
-182 -166 168 0
-182 -174 176 0
-182 -183 187 0
-182 -185 189 0
-187 -170 168 0
-187 -178 176 0
-187 -184 182 0
-187 -191 189 0
-189 -172 168 0
-189 -180 176 0
-189 -186 182 0
-189 -192 187 0
-170 -163 178 0
-170 -165 184 0
-170 -167 188 0
-170 -171 191 0
-178 -164 170 0
-178 -173 184 0
-178 -175 188 0
-178 -179 191 0
-184 -166 170 0
-184 -174 178 0
-184 -181 188 0
-184 -185 191 0
-188 -168 170 0
-188 -176 178 0
-188 -182 184 0
-188 -189 191 0
-191 -172 170 0
-191 -180 178 0
-191 -186 184 0
-191 -190 188 0
-172 -163 180 0
-172 -165 186 0
-172 -167 190 0
-172 -169 192 0
-180 -164 172 0
-180 -173 186 0
-180 -175 190 0
-180 -177 192 0
-186 -166 172 0
-186 -174 180 0
-186 -181 190 0
-186 -183 192 0
-190 -168 172 0
-190 -176 180 0
-190 -182 186 0
-190 -187 192 0
-192 -170 172 0
-192 -178 180 0
-192 -184 186 0
-192 -188 190 0
193 194 0
-193 -194 0
195 196 0
-195 -196 0
197 198 0
-197 -198 0
199 200 0
-199 -200 0
201 202 0
-201 -202 0
203 204 0
-203 -204 0
205 206 0
-205 -206 0
207 208 0
-207 -208 0
209 210 0
-209 -210 0
211 212 0
-211 -212 0
213 214 0
-213 -214 0
215 216 0
-215 -216 0
217 218 0
-217 -218 0
219 220 0
-219 -220 0
221 222 0
-221 -222 0
-193 -203 195 0
-193 -205 197 0
-193 -207 199 0
-193 -209 201 0
-195 -204 193 0
-195 -211 197 0
-195 -213 199 0
-195 -215 201 0
-197 -206 193 0
-197 -212 195 0
-197 -217 199 0
-197 -219 201 0
-199 -208 193 0
-199 -214 195 0
-199 -218 197 0
-199 -221 201 0
-201 -210 193 0
-201 -216 195 0
-201 -220 197 0
-201 -222 199 0
-194 -195 203 0
-194 -197 205 0
-194 -199 207 0
-194 -201 209 0
-203 -196 194 0
-203 -211 205 0
-203 -213 207 0
-203 -215 209 0
-205 -198 194 0
-205 -212 203 0
-205 -217 207 0
-205 -219 209 0
-207 -200 194 0
-207 -214 203 0
-207 -218 205 0
-207 -221 209 0
-209 -202 194 0
-209 -216 203 0
-209 -220 205 0
-209 -222 207 0
-196 -193 204 0
-196 -197 211 0
-196 -199 213 0
-196 -201 215 0
-204 -194 196 0
-204 -205 211 0
-204 -207 213 0
-204 -209 215 0
-211 -198 196 0
-211 -206 204 0
-211 -217 213 0
-211 -219 215 0
-213 -200 196 0
-213 -208 204 0
-213 -218 211 0
-213 -221 215 0
-215 -202 196 0
-215 -210 204 0
-215 -220 211 0
-215 -222 213 0
-198 -193 206 0
-198 -195 212 0
-198 -199 217 0
-198 -201 219 0
-206 -194 198 0
-206 -203 212 0
-206 -207 217 0
-206 -209 219 0
-212 -196 198 0
-212 -204 206 0
-212 -213 217 0
-212 -215 219 0
-217 -200 198 0
-217 -208 206 0
-217 -214 212 0
-217 -221 219 0
-219 -202 198 0
-219 -210 206 0
-219 -216 212 0
-219 -222 217 0
-200 -193 208 0
-200 -195 214 0
-200 -197 218 0
-200 -201 221 0
-208 -194 200 0
-208 -203 214 0
-208 -205 218 0
-208 -209 221 0
-214 -196 200 0
-214 -204 208 0
-214 -211 218 0
-214 -215 221 0
-218 -198 200 0
-218 -206 208 0
-218 -212 214 0
-218 -219 221 0
-221 -202 200 0
-221 -210 208 0
-221 -216 214 0
-221 -220 218 0
-202 -193 210 0
-202 -195 216 0
-202 -197 220 0
-202 -199 222 0
-210 -194 202 0
-210 -203 216 0
-210 -205 220 0
-210 -207 222 0
-216 -196 202 0
-216 -204 210 0
-216 -211 220 0
-216 -213 222 0
-220 -198 202 0
-220 -206 210 0
-220 -212 216 0
-220 -217 222 0
-222 -200 202 0
-222 -208 210 0
-222 -214 216 0
-222 -218 220 0
223 224 0
-223 -224 0
225 226 0
-225 -226 0
227 228 0
-227 -228 0
229 230 0
-229 -230 0
231 232 0
-231 -232 0
233 234 0
-233 -234 0
235 236 0
-235 -236 0
237 238 0
-237 -238 0
239 240 0
-239 -240 0
241 242 0
-241 -242 0
243 244 0
-243 -244 0
245 246 0
-245 -246 0
247 248 0
-247 -248 0
249 250 0
-249 -250 0
251 252 0
-251 -252 0
-223 -233 225 0
-223 -235 227 0
-223 -237 229 0
-223 -239 231 0
-225 -234 223 0
-225 -241 227 0
-225 -243 229 0
-225 -245 231 0
-227 -236 223 0
-227 -242 225 0
-227 -247 229 0
-227 -249 231 0
-229 -238 223 0
-229 -244 225 0
-229 -248 227 0
-229 -251 231 0
-231 -240 223 0
-231 -246 225 0
-231 -250 227 0
-231 -252 229 0
-224 -225 233 0
-224 -227 235 0
-224 -229 237 0
-224 -231 239 0
-233 -226 224 0
-233 -241 235 0
-233 -243 237 0
-233 -245 239 0
-235 -228 224 0
-235 -242 233 0
-235 -247 237 0
-235 -249 239 0
-237 -230 224 0
-237 -244 233 0
-237 -248 235 0
-237 -251 239 0
-239 -232 224 0
-239 -246 233 0
-239 -250 235 0
-239 -252 237 0
-226 -223 234 0
-226 -227 241 0
-226 -229 243 0
-226 -231 245 0
-234 -224 226 0
-234 -235 241 0
-234 -237 243 0
-234 -239 245 0
-241 -228 226 0
-241 -236 234 0
-241 -247 243 0
-241 -249 245 0
-243 -230 226 0
-243 -238 234 0
-243 -248 241 0
-243 -251 245 0
-245 -232 226 0
-245 -240 234 0
-245 -250 241 0
-245 -252 243 0
-228 -223 236 0
-228 -225 242 0
-228 -229 247 0
-228 -231 249 0
-236 -224 228 0
-236 -233 242 0
-236 -237 247 0
-236 -239 249 0
-242 -226 228 0
-242 -234 236 0
-242 -243 247 0
-242 -245 249 0
-247 -230 228 0
-247 -238 236 0
-247 -244 242 0
-247 -251 249 0
-249 -232 228 0
-249 -240 236 0
-249 -246 242 0
-249 -252 247 0
-230 -223 238 0
-230 -225 244 0
-230 -227 248 0
-230 -231 251 0
-238 -224 230 0
-238 -233 244 0
-238 -235 248 0
-238 -239 251 0
-244 -226 230 0
-244 -234 238 0
-244 -241 248 0
-244 -245 251 0
-248 -228 230 0
-248 -236 238 0
-248 -242 244 0
-248 -249 251 0
-251 -232 230 0
-251 -240 238 0
-251 -246 244 0
-251 -250 248 0
-232 -223 240 0
-232 -225 246 0
-232 -227 250 0
-232 -229 252 0
-240 -224 232 0
-240 -233 246 0
-240 -235 250 0
-240 -237 252 0
-246 -226 232 0
-246 -234 240 0
-246 -241 250 0
-246 -243 252 0
-250 -228 232 0
-250 -236 240 0
-250 -242 246 0
-250 -247 252 0
-252 -230 232 0
-252 -238 240 0
-252 -244 246 0
-252 -248 250 0
253 254 0
-253 -254 0
255 256 0
-255 -256 0
257 258 0
-257 -258 0
259 260 0
-259 -260 0
261 262 0
-261 -262 0
263 264 0
-263 -264 0
265 266 0
-265 -266 0
267 268 0
-267 -268 0
269 270 0
-269 -270 0
271 272 0
-271 -272 0
273 274 0
-273 -274 0
275 276 0
-275 -276 0
277 278 0
-277 -278 0
279 280 0
-279 -280 0
281 282 0
-281 -282 0
-253 -263 255 0
-253 -265 257 0
-253 -267 259 0
-253 -269 261 0
-255 -264 253 0
-255 -271 257 0
-255 -273 259 0
-255 -275 261 0
-257 -266 253 0
-257 -272 255 0
-257 -277 259 0
-257 -279 261 0
-259 -268 253 0
-259 -274 255 0
-259 -278 257 0
-259 -281 261 0
-261 -270 253 0
-261 -276 255 0
-261 -280 257 0
-261 -282 259 0
-254 -255 263 0
-254 -257 265 0
-254 -259 267 0
-254 -261 269 0
-263 -256 254 0
-263 -271 265 0
-263 -273 267 0
-263 -275 269 0
-265 -258 254 0
-265 -272 263 0
-265 -277 267 0
-265 -279 269 0
-267 -260 254 0
-267 -274 263 0
-267 -278 265 0
-267 -281 269 0
-269 -262 254 0
-269 -276 263 0
-269 -280 265 0
-269 -282 267 0
-256 -253 264 0
-256 -257 271 0
-256 -259 273 0
-256 -261 275 0
-264 -254 256 0
-264 -265 271 0
-264 -267 273 0
-264 -269 275 0
-271 -258 256 0
-271 -266 264 0
-271 -277 273 0
-271 -279 275 0
-273 -260 256 0
-273 -268 264 0
-273 -278 271 0
-273 -281 275 0
-275 -262 256 0
-275 -270 264 0
-275 -280 271 0
-275 -282 273 0
-258 -253 266 0
-258 -255 272 0
-258 -259 277 0
-258 -261 279 0
-266 -254 258 0
-266 -263 272 0
-266 -267 277 0
-266 -269 279 0
-272 -256 258 0
-272 -264 266 0
-272 -273 277 0
-272 -275 279 0
-277 -260 258 0
-277 -268 266 0
-277 -274 272 0
-277 -281 279 0
-279 -262 258 0
-279 -270 266 0
-279 -276 272 0
-279 -282 277 0
-260 -253 268 0
-260 -255 274 0
-260 -257 278 0
-260 -261 281 0
-268 -254 260 0
-268 -263 274 0
-268 -265 278 0
-268 -269 281 0
-274 -256 260 0
-274 -264 268 0
-274 -271 278 0
-274 -275 281 0
-278 -258 260 0
-278 -266 268 0
-278 -272 274 0
-278 -279 281 0
-281 -262 260 0
-281 -270 268 0
-281 -276 274 0
-281 -280 278 0
-262 -253 270 0
-262 -255 276 0
-262 -257 280 0
-262 -259 282 0
-270 -254 262 0
-270 -263 276 0
-270 -265 280 0
-270 -267 282 0
-276 -256 262 0
-276 -264 270 0
-276 -271 280 0
-276 -273 282 0
-280 -258 262 0
-280 -266 270 0
-280 -272 276 0
-280 -277 282 0
-282 -260 262 0
-282 -268 270 0
-282 -274 276 0
-282 -278 280 0
283 284 0
-283 -284 0
285 286 0
-285 -286 0
287 288 0
-287 -288 0
289 290 0
-289 -290 0
291 292 0
-291 -292 0
293 294 0
-293 -294 0
295 296 0
-295 -296 0
297 298 0
-297 -298 0
299 300 0
-299 -300 0
301 302 0
-301 -302 0
303 304 0
-303 -304 0
305 306 0
-305 -306 0
307 308 0
-307 -308 0
309 310 0
-309 -310 0
311 312 0
-311 -312 0
-283 -293 285 0
-283 -295 287 0
-283 -297 289 0
-283 -299 291 0
-285 -294 283 0
-285 -301 287 0
-285 -303 289 0
-285 -305 291 0
-287 -296 283 0
-287 -302 285 0
-287 -307 289 0
-287 -309 291 0
-289 -298 283 0
-289 -304 285 0
-289 -308 287 0
-289 -311 291 0
-291 -300 283 0
-291 -306 285 0
-291 -310 287 0
-291 -312 289 0
-284 -285 293 0
-284 -287 295 0
-284 -289 297 0
-284 -291 299 0
-293 -286 284 0
-293 -301 295 0
-293 -303 297 0
-293 -305 299 0
-295 -288 284 0
-295 -302 293 0
-295 -307 297 0
-295 -309 299 0
-297 -290 284 0
-297 -304 293 0
-297 -308 295 0
-297 -311 299 0
-299 -292 284 0
-299 -306 293 0
-299 -310 295 0
-299 -312 297 0
-286 -283 294 0
-286 -287 301 0
-286 -289 303 0
-286 -291 305 0
-294 -284 286 0
-294 -295 301 0
-294 -297 303 0
-294 -299 305 0
-301 -288 286 0
-301 -296 294 0
-301 -307 303 0
-301 -309 305 0
-303 -290 286 0
-303 -298 294 0
-303 -308 301 0
-303 -311 305 0
-305 -292 286 0
-305 -300 294 0
-305 -310 301 0
-305 -312 303 0
-288 -283 296 0
-288 -285 302 0
-288 -289 307 0
-288 -291 309 0
-296 -284 288 0
-296 -293 302 0
-296 -297 307 0
-296 -299 309 0
-302 -286 288 0
-302 -294 296 0
-302 -303 307 0
-302 -305 309 0
-307 -290 288 0
-307 -298 296 0
-307 -304 302 0
-307 -311 309 0
-309 -292 288 0
-309 -300 296 0
-309 -306 302 0
-309 -312 307 0
-290 -283 298 0
-290 -285 304 0
-290 -287 308 0
-290 -291 311 0
-298 -284 290 0
-298 -293 304 0
-298 -295 308 0
-298 -299 311 0
-304 -286 290 0
-304 -294 298 0
-304 -301 308 0
-304 -305 311 0
-308 -288 290 0
-308 -296 298 0
-308 -302 304 0
-308 -309 311 0
-311 -292 290 0
-311 -300 298 0
-311 -306 304 0
-311 -310 308 0
-292 -283 300 0
-292 -285 306 0
-292 -287 310 0
-292 -289 312 0
-300 -284 292 0
-300 -293 306 0
-300 -295 310 0
-300 -297 312 0
-306 -286 292 0
-306 -294 300 0
-306 -301 310 0
-306 -303 312 0
-310 -288 292 0
-310 -296 300 0
-310 -302 306 0
-310 -307 312 0
-312 -290 292 0
-312 -298 300 0
-312 -304 306 0
-312 -308 310 0
313 314 0
-313 -314 0
315 316 0
-315 -316 0
317 318 0
-317 -318 0
319 320 0
-319 -320 0
321 322 0
-321 -322 0
323 324 0
-323 -324 0
-313 -319 315 0
-313 -321 317 0
-315 -320 313 0
-315 -323 317 0
-317 -322 313 0
-317 -324 315 0
-314 -315 319 0
-314 -317 321 0
-319 -316 314 0
-319 -323 321 0
-321 -318 314 0
-321 -324 319 0
-316 -313 320 0
-316 -317 323 0
-320 -314 316 0
-320 -321 323 0
-323 -318 316 0
-323 -322 320 0
-318 -313 322 0
-318 -315 324 0
-322 -314 318 0
-322 -319 324 0
-324 -316 318 0
-324 -320 322 0
325 326 0
-325 -326 0
327 328 0
-327 -328 0
329 330 0
-329 -330 0
331 332 0
-331 -332 0
333 334 0
-333 -334 0
335 336 0
-335 -336 0
337 338 0
-337 -338 0
339 340 0
-339 -340 0
341 342 0
-341 -342 0
343 344 0
-343 -344 0
345 346 0
-345 -346 0
347 348 0
-347 -348 0
349 350 0
-349 -350 0
351 352 0
-351 -352 0
353 354 0
-353 -354 0
-325 -335 327 0
-325 -337 329 0
-325 -339 331 0
-325 -341 333 0
-327 -336 325 0
-327 -343 329 0
-327 -345 331 0
-327 -347 333 0
-329 -338 325 0
-329 -344 327 0
-329 -349 331 0
-329 -351 333 0
-331 -340 325 0
-331 -346 327 0
-331 -350 329 0
-331 -353 333 0
-333 -342 325 0
-333 -348 327 0
-333 -352 329 0
-333 -354 331 0
-326 -327 335 0
-326 -329 337 0
-326 -331 339 0
-326 -333 341 0
-335 -328 326 0
-335 -343 337 0
-335 -345 339 0
-335 -347 341 0
-337 -330 326 0
-337 -344 335 0
-337 -349 339 0
-337 -351 341 0
-339 -332 326 0
-339 -346 335 0
-339 -350 337 0
-339 -353 341 0
-341 -334 326 0
-341 -348 335 0
-341 -352 337 0
-341 -354 339 0
-328 -325 336 0
-328 -329 343 0
-328 -331 345 0
-328 -333 347 0
-336 -326 328 0
-336 -337 343 0
-336 -339 345 0
-336 -341 347 0
-343 -330 328 0
-343 -338 336 0
-343 -349 345 0
-343 -351 347 0
-345 -332 328 0
-345 -340 336 0
-345 -350 343 0
-345 -353 347 0
-347 -334 328 0
-347 -342 336 0
-347 -352 343 0
-347 -354 345 0
-330 -325 338 0
-330 -327 344 0
-330 -331 349 0
-330 -333 351 0
-338 -326 330 0
-338 -335 344 0
-338 -339 349 0
-338 -341 351 0
-344 -328 330 0
-344 -336 338 0
-344 -345 349 0
-344 -347 351 0
-349 -332 330 0
-349 -340 338 0
-349 -346 344 0
-349 -353 351 0
-351 -334 330 0
-351 -342 338 0
-351 -348 344 0
-351 -354 349 0
-332 -325 340 0
-332 -327 346 0
-332 -329 350 0
-332 -333 353 0
-340 -326 332 0
-340 -335 346 0
-340 -337 350 0
-340 -341 353 0
-346 -328 332 0
-346 -336 340 0
-346 -343 350 0
-346 -347 353 0
-350 -330 332 0
-350 -338 340 0
-350 -344 346 0
-350 -351 353 0
-353 -334 332 0
-353 -342 340 0
-353 -348 346 0
-353 -352 350 0
-334 -325 342 0
-334 -327 348 0
-334 -329 352 0
-334 -331 354 0
-342 -326 334 0
-342 -335 348 0
-342 -337 352 0
-342 -339 354 0
-348 -328 334 0
-348 -336 342 0
-348 -343 352 0
-348 -345 354 0
-352 -330 334 0
-352 -338 342 0
-352 -344 348 0
-352 -349 354 0
-354 -332 334 0
-354 -340 342 0
-354 -346 348 0
-354 -350 352 0
355 356 0
-355 -356 0
357 358 0
-357 -358 0
359 360 0
-359 -360 0
361 362 0
-361 -362 0
363 364 0
-363 -364 0
365 366 0
-365 -366 0
367 368 0
-367 -368 0
369 370 0
-369 -370 0
371 372 0
-371 -372 0
373 374 0
-373 -374 0
375 376 0
-375 -376 0
377 378 0
-377 -378 0
379 380 0
-379 -380 0
381 382 0
-381 -382 0
383 384 0
-383 -384 0
-355 -365 357 0
-355 -367 359 0
-355 -369 361 0
-355 -371 363 0
-357 -366 355 0
-357 -373 359 0
-357 -375 361 0
-357 -377 363 0
-359 -368 355 0
-359 -374 357 0
-359 -379 361 0
-359 -381 363 0
-361 -370 355 0
-361 -376 357 0
-361 -380 359 0
-361 -383 363 0
-363 -372 355 0
-363 -378 357 0
-363 -382 359 0
-363 -384 361 0
-356 -357 365 0
-356 -359 367 0
-356 -361 369 0
-356 -363 371 0
-365 -358 356 0
-365 -373 367 0
-365 -375 369 0
-365 -377 371 0
-367 -360 356 0
-367 -374 365 0
-367 -379 369 0
-367 -381 371 0
-369 -362 356 0
-369 -376 365 0
-369 -380 367 0
-369 -383 371 0
-371 -364 356 0
-371 -378 365 0
-371 -382 367 0
-371 -384 369 0
-358 -355 366 0
-358 -359 373 0
-358 -361 375 0
-358 -363 377 0
-366 -356 358 0
-366 -367 373 0
-366 -369 375 0
-366 -371 377 0
-373 -360 358 0
-373 -368 366 0
-373 -379 375 0
-373 -381 377 0
-375 -362 358 0
-375 -370 366 0
-375 -380 373 0
-375 -383 377 0
-377 -364 358 0
-377 -372 366 0
-377 -382 373 0
-377 -384 375 0
-360 -355 368 0
-360 -357 374 0
-360 -361 379 0
-360 -363 381 0
-368 -356 360 0
-368 -365 374 0
-368 -369 379 0
-368 -371 381 0
-374 -358 360 0
-374 -366 368 0
-374 -375 379 0
-374 -377 381 0
-379 -362 360 0
-379 -370 368 0
-379 -376 374 0
-379 -383 381 0
-381 -364 360 0
-381 -372 368 0
-381 -378 374 0
-381 -384 379 0
-362 -355 370 0
-362 -357 376 0
-362 -359 380 0
-362 -363 383 0
-370 -356 362 0
-370 -365 376 0
-370 -367 380 0
-370 -371 383 0
-376 -358 362 0
-376 -366 370 0
-376 -373 380 0
-376 -377 383 0
-380 -360 362 0
-380 -368 370 0
-380 -374 376 0
-380 -381 383 0
-383 -364 362 0
-383 -372 370 0
-383 -378 376 0
-383 -382 380 0
-364 -355 372 0
-364 -357 378 0
-364 -359 382 0
-364 -361 384 0
-372 -356 364 0
-372 -365 378 0
-372 -367 382 0
-372 -369 384 0
-378 -358 364 0
-378 -366 372 0
-378 -373 382 0
-378 -375 384 0
-382 -360 364 0
-382 -368 372 0
-382 -374 378 0
-382 -379 384 0
-384 -362 364 0
-384 -370 372 0
-384 -376 378 0
-384 -380 382 0
385 386 0
-385 -386 0
387 388 0
-387 -388 0
389 390 0
-389 -390 0
391 392 0
-391 -392 0
393 394 0
-393 -394 0
395 396 0
-395 -396 0
397 398 0
-397 -398 0
399 400 0
-399 -400 0
401 402 0
-401 -402 0
403 404 0
-403 -404 0
405 406 0
-405 -406 0
407 408 0
-407 -408 0
409 410 0
-409 -410 0
411 412 0
-411 -412 0
413 414 0
-413 -414 0
-385 -395 387 0
-385 -397 389 0
-385 -399 391 0
-385 -401 393 0
-387 -396 385 0
-387 -403 389 0
-387 -405 391 0
-387 -407 393 0
-389 -398 385 0
-389 -404 387 0
-389 -409 391 0
-389 -411 393 0
-391 -400 385 0
-391 -406 387 0
-391 -410 389 0
-391 -413 393 0
-393 -402 385 0
-393 -408 387 0
-393 -412 389 0
-393 -414 391 0
-386 -387 395 0
-386 -389 397 0
-386 -391 399 0
-386 -393 401 0
-395 -388 386 0
-395 -403 397 0
-395 -405 399 0
-395 -407 401 0
-397 -390 386 0
-397 -404 395 0
-397 -409 399 0
-397 -411 401 0
-399 -392 386 0
-399 -406 395 0
-399 -410 397 0
-399 -413 401 0
-401 -394 386 0
-401 -408 395 0
-401 -412 397 0
-401 -414 399 0
-388 -385 396 0
-388 -389 403 0
-388 -391 405 0
-388 -393 407 0
-396 -386 388 0
-396 -397 403 0
-396 -399 405 0
-396 -401 407 0
-403 -390 388 0
-403 -398 396 0
-403 -409 405 0
-403 -411 407 0
-405 -392 388 0
-405 -400 396 0
-405 -410 403 0
-405 -413 407 0
-407 -394 388 0
-407 -402 396 0
-407 -412 403 0
-407 -414 405 0
-390 -385 398 0
-390 -387 404 0
-390 -391 409 0
-390 -393 411 0
-398 -386 390 0
-398 -395 404 0
-398 -399 409 0
-398 -401 411 0
-404 -388 390 0
-404 -396 398 0
-404 -405 409 0
-404 -407 411 0
-409 -392 390 0
-409 -400 398 0
-409 -406 404 0
-409 -413 411 0
-411 -394 390 0
-411 -402 398 0
-411 -408 404 0
-411 -414 409 0
-392 -385 400 0
-392 -387 406 0
-392 -389 410 0
-392 -393 413 0
-400 -386 392 0
-400 -395 406 0
-400 -397 410 0
-400 -401 413 0
-406 -388 392 0
-406 -396 400 0
-406 -403 410 0
-406 -407 413 0
-410 -390 392 0
-410 -398 400 0
-410 -404 406 0
-410 -411 413 0
-413 -394 392 0
-413 -402 400 0
-413 -408 406 0
-413 -412 410 0
-394 -385 402 0
-394 -387 408 0
-394 -389 412 0
-394 -391 414 0
-402 -386 394 0
-402 -395 408 0
-402 -397 412 0
-402 -399 414 0
-408 -388 394 0
-408 -396 402 0
-408 -403 412 0
-408 -405 414 0
-412 -390 394 0
-412 -398 402 0
-412 -404 408 0
-412 -409 414 0
-414 -392 394 0
-414 -400 402 0
-414 -406 408 0
-414 -410 412 0
415 416 0
-415 -416 0
417 418 0
-417 -418 0
419 420 0
-419 -420 0
421 422 0
-421 -422 0
423 424 0
-423 -424 0
425 426 0
-425 -426 0
427 428 0
-427 -428 0
429 430 0
-429 -430 0
431 432 0
-431 -432 0
433 434 0
-433 -434 0
435 436 0
-435 -436 0
437 438 0
-437 -438 0
439 440 0
-439 -440 0
441 442 0
-441 -442 0
443 444 0
-443 -444 0
-415 -425 417 0
-415 -427 419 0
-415 -429 421 0
-415 -431 423 0
-417 -426 415 0
-417 -433 419 0
-417 -435 421 0
-417 -437 423 0
-419 -428 415 0
-419 -434 417 0
-419 -439 421 0
-419 -441 423 0
-421 -430 415 0
-421 -436 417 0
-421 -440 419 0
-421 -443 423 0
-423 -432 415 0
-423 -438 417 0
-423 -442 419 0
-423 -444 421 0
-416 -417 425 0
-416 -419 427 0
-416 -421 429 0
-416 -423 431 0
-425 -418 416 0
-425 -433 427 0
-425 -435 429 0
-425 -437 431 0
-427 -420 416 0
-427 -434 425 0
-427 -439 429 0
-427 -441 431 0
-429 -422 416 0
-429 -436 425 0
-429 -440 427 0
-429 -443 431 0
-431 -424 416 0
-431 -438 425 0
-431 -442 427 0
-431 -444 429 0
-418 -415 426 0
-418 -419 433 0
-418 -421 435 0
-418 -423 437 0
-426 -416 418 0
-426 -427 433 0
-426 -429 435 0
-426 -431 437 0
-433 -420 418 0
-433 -428 426 0
-433 -439 435 0
-433 -441 437 0
-435 -422 418 0
-435 -430 426 0
-435 -440 433 0
-435 -443 437 0
-437 -424 418 0
-437 -432 426 0
-437 -442 433 0
-437 -444 435 0
-420 -415 428 0
-420 -417 434 0
-420 -421 439 0
-420 -423 441 0
-428 -416 420 0
-428 -425 434 0
-428 -429 439 0
-428 -431 441 0
-434 -418 420 0
-434 -426 428 0
-434 -435 439 0
-434 -437 441 0
-439 -422 420 0
-439 -430 428 0
-439 -436 434 0
-439 -443 441 0
-441 -424 420 0
-441 -432 428 0
-441 -438 434 0
-441 -444 439 0
-422 -415 430 0
-422 -417 436 0
-422 -419 440 0
-422 -423 443 0
-430 -416 422 0
-430 -425 436 0
-430 -427 440 0
-430 -431 443 0
-436 -418 422 0
-436 -426 430 0
-436 -433 440 0
-436 -437 443 0
-440 -420 422 0
-440 -428 430 0
-440 -434 436 0
-440 -441 443 0
-443 -424 422 0
-443 -432 430 0
-443 -438 436 0
-443 -442 440 0
-424 -415 432 0
-424 -417 438 0
-424 -419 442 0
-424 -421 444 0
-432 -416 424 0
-432 -425 438 0
-432 -427 442 0
-432 -429 444 0
-438 -418 424 0
-438 -426 432 0
-438 -433 442 0
-438 -435 444 0
-442 -420 424 0
-442 -428 432 0
-442 -434 438 0
-442 -439 444 0
-444 -422 424 0
-444 -430 432 0
-444 -436 438 0
-444 -440 442 0
445 446 0
-445 -446 0
447 448 0
-447 -448 0
449 450 0
-449 -450 0
451 452 0
-451 -452 0
453 454 0
-453 -454 0
455 456 0
-455 -456 0
-445 -451 447 0
-445 -453 449 0
-447 -452 445 0
-447 -455 449 0
-449 -454 445 0
-449 -456 447 0
-446 -447 451 0
-446 -449 453 0
-451 -448 446 0
-451 -455 453 0
-453 -450 446 0
-453 -456 451 0
-448 -445 452 0
-448 -449 455 0
-452 -446 448 0
-452 -453 455 0
-455 -450 448 0
-455 -454 452 0
-450 -445 454 0
-450 -447 456 0
-454 -446 450 0
-454 -451 456 0
-456 -448 450 0
-456 -452 454 0
457 458 0
-457 -458 0
459 460 0
-459 -460 0
461 462 0
-461 -462 0
463 464 0
-463 -464 0
465 466 0
-465 -466 0
467 468 0
-467 -468 0
469 470 0
-469 -470 0
471 472 0
-471 -472 0
473 474 0
-473 -474 0
475 476 0
-475 -476 0
477 478 0
-477 -478 0
479 480 0
-479 -480 0
481 482 0
-481 -482 0
483 484 0
-483 -484 0
485 486 0
-485 -486 0
-457 -467 459 0
-457 -469 461 0
-457 -471 463 0
-457 -473 465 0
-459 -468 457 0
-459 -475 461 0
-459 -477 463 0
-459 -479 465 0
-461 -470 457 0
-461 -476 459 0
-461 -481 463 0
-461 -483 465 0
-463 -472 457 0
-463 -478 459 0
-463 -482 461 0
-463 -485 465 0
-465 -474 457 0
-465 -480 459 0
-465 -484 461 0
-465 -486 463 0
-458 -459 467 0
-458 -461 469 0
-458 -463 471 0
-458 -465 473 0
-467 -460 458 0
-467 -475 469 0
-467 -477 471 0
-467 -479 473 0
-469 -462 458 0
-469 -476 467 0
-469 -481 471 0
-469 -483 473 0
-471 -464 458 0
-471 -478 467 0
-471 -482 469 0
-471 -485 473 0
-473 -466 458 0
-473 -480 467 0
-473 -484 469 0
-473 -486 471 0
-460 -457 468 0
-460 -461 475 0
-460 -463 477 0
-460 -465 479 0
-468 -458 460 0
-468 -469 475 0
-468 -471 477 0
-468 -473 479 0
-475 -462 460 0
-475 -470 468 0
-475 -481 477 0
-475 -483 479 0
-477 -464 460 0
-477 -472 468 0
-477 -482 475 0
-477 -485 479 0
-479 -466 460 0
-479 -474 468 0
-479 -484 475 0
-479 -486 477 0
-462 -457 470 0
-462 -459 476 0
-462 -463 481 0
-462 -465 483 0
-470 -458 462 0
-470 -467 476 0
-470 -471 481 0
-470 -473 483 0
-476 -460 462 0
-476 -468 470 0
-476 -477 481 0
-476 -479 483 0
-481 -464 462 0
-481 -472 470 0
-481 -478 476 0
-481 -485 483 0
-483 -466 462 0
-483 -474 470 0
-483 -480 476 0
-483 -486 481 0
-464 -457 472 0
-464 -459 478 0
-464 -461 482 0
-464 -465 485 0
-472 -458 464 0
-472 -467 478 0
-472 -469 482 0
-472 -473 485 0
-478 -460 464 0
-478 -468 472 0
-478 -475 482 0
-478 -479 485 0
-482 -462 464 0
-482 -470 472 0
-482 -476 478 0
-482 -483 485 0
-485 -466 464 0
-485 -474 472 0
-485 -480 478 0
-485 -484 482 0
-466 -457 474 0
-466 -459 480 0
-466 -461 484 0
-466 -463 486 0
-474 -458 466 0
-474 -467 480 0
-474 -469 484 0
-474 -471 486 0
-480 -460 466 0
-480 -468 474 0
-480 -475 484 0
-480 -477 486 0
-484 -462 466 0
-484 -470 474 0
-484 -476 480 0
-484 -481 486 0
-486 -464 466 0
-486 -472 474 0
-486 -478 480 0
-486 -482 484 0
487 488 0
-487 -488 0
489 490 0
-489 -490 0
491 492 0
-491 -492 0
493 494 0
-493 -494 0
495 496 0
-495 -496 0
497 498 0
-497 -498 0
499 500 0
-499 -500 0
501 502 0
-501 -502 0
503 504 0
-503 -504 0
505 506 0
-505 -506 0
507 508 0
-507 -508 0
509 510 0
-509 -510 0
511 512 0
-511 -512 0
513 514 0
-513 -514 0
515 516 0
-515 -516 0
-487 -497 489 0
-487 -499 491 0
-487 -501 493 0
-487 -503 495 0
-489 -498 487 0
-489 -505 491 0
-489 -507 493 0
-489 -509 495 0
-491 -500 487 0
-491 -506 489 0
-491 -511 493 0
-491 -513 495 0
-493 -502 487 0
-493 -508 489 0
-493 -512 491 0
-493 -515 495 0
-495 -504 487 0
-495 -510 489 0
-495 -514 491 0
-495 -516 493 0
-488 -489 497 0
-488 -491 499 0
-488 -493 501 0
-488 -495 503 0
-497 -490 488 0
-497 -505 499 0
-497 -507 501 0
-497 -509 503 0
-499 -492 488 0
-499 -506 497 0
-499 -511 501 0
-499 -513 503 0
-501 -494 488 0
-501 -508 497 0
-501 -512 499 0
-501 -515 503 0
-503 -496 488 0
-503 -510 497 0
-503 -514 499 0
-503 -516 501 0
-490 -487 498 0
-490 -491 505 0
-490 -493 507 0
-490 -495 509 0
-498 -488 490 0
-498 -499 505 0
-498 -501 507 0
-498 -503 509 0
-505 -492 490 0
-505 -500 498 0
-505 -511 507 0
-505 -513 509 0
-507 -494 490 0
-507 -502 498 0
-507 -512 505 0
-507 -515 509 0
-509 -496 490 0
-509 -504 498 0
-509 -514 505 0
-509 -516 507 0
-492 -487 500 0
-492 -489 506 0
-492 -493 511 0
-492 -495 513 0
-500 -488 492 0
-500 -497 506 0
-500 -501 511 0
-500 -503 513 0
-506 -490 492 0
-506 -498 500 0
-506 -507 511 0
-506 -509 513 0
-511 -494 492 0
-511 -502 500 0
-511 -508 506 0
-511 -515 513 0
-513 -496 492 0
-513 -504 500 0
-513 -510 506 0
-513 -516 511 0
-494 -487 502 0
-494 -489 508 0
-494 -491 512 0
-494 -495 515 0
-502 -488 494 0
-502 -497 508 0
-502 -499 512 0
-502 -503 515 0
-508 -490 494 0
-508 -498 502 0
-508 -505 512 0
-508 -509 515 0
-512 -492 494 0
-512 -500 502 0
-512 -506 508 0
-512 -513 515 0
-515 -496 494 0
-515 -504 502 0
-515 -510 508 0
-515 -514 512 0
-496 -487 504 0
-496 -489 510 0
-496 -491 514 0
-496 -493 516 0
-504 -488 496 0
-504 -497 510 0
-504 -499 514 0
-504 -501 516 0
-510 -490 496 0
-510 -498 504 0
-510 -505 514 0
-510 -507 516 0
-514 -492 496 0
-514 -500 504 0
-514 -506 510 0
-514 -511 516 0
-516 -494 496 0
-516 -502 504 0
-516 -508 510 0
-516 -512 514 0
517 518 0
-517 -518 0
519 520 0
-519 -520 0
521 522 0
-521 -522 0
523 524 0
-523 -524 0
525 526 0
-525 -526 0
527 528 0
-527 -528 0
529 530 0
-529 -530 0
531 532 0
-531 -532 0
533 534 0
-533 -534 0
535 536 0
-535 -536 0
537 538 0
-537 -538 0
539 540 0
-539 -540 0
541 542 0
-541 -542 0
543 544 0
-543 -544 0
545 546 0
-545 -546 0
-517 -527 519 0
-517 -529 521 0
-517 -531 523 0
-517 -533 525 0
-519 -528 517 0
-519 -535 521 0
-519 -537 523 0
-519 -539 525 0
-521 -530 517 0
-521 -536 519 0
-521 -541 523 0
-521 -543 525 0
-523 -532 517 0
-523 -538 519 0
-523 -542 521 0
-523 -545 525 0
-525 -534 517 0
-525 -540 519 0
-525 -544 521 0
-525 -546 523 0
-518 -519 527 0
-518 -521 529 0
-518 -523 531 0
-518 -525 533 0
-527 -520 518 0
-527 -535 529 0
-527 -537 531 0
-527 -539 533 0
-529 -522 518 0
-529 -536 527 0
-529 -541 531 0
-529 -543 533 0
-531 -524 518 0
-531 -538 527 0
-531 -542 529 0
-531 -545 533 0
-533 -526 518 0
-533 -540 527 0
-533 -544 529 0
-533 -546 531 0
-520 -517 528 0
-520 -521 535 0
-520 -523 537 0
-520 -525 539 0
-528 -518 520 0
-528 -529 535 0
-528 -531 537 0
-528 -533 539 0
-535 -522 520 0
-535 -530 528 0
-535 -541 537 0
-535 -543 539 0
-537 -524 520 0
-537 -532 528 0
-537 -542 535 0
-537 -545 539 0
-539 -526 520 0
-539 -534 528 0
-539 -544 535 0
-539 -546 537 0
-522 -517 530 0
-522 -519 536 0
-522 -523 541 0
-522 -525 543 0
-530 -518 522 0
-530 -527 536 0
-530 -531 541 0
-530 -533 543 0
-536 -520 522 0
-536 -528 530 0
-536 -537 541 0
-536 -539 543 0
-541 -524 522 0
-541 -532 530 0
-541 -538 536 0
-541 -545 543 0
-543 -526 522 0
-543 -534 530 0
-543 -540 536 0
-543 -546 541 0
-524 -517 532 0
-524 -519 538 0
-524 -521 542 0
-524 -525 545 0
-532 -518 524 0
-532 -527 538 0
-532 -529 542 0
-532 -533 545 0
-538 -520 524 0
-538 -528 532 0
-538 -535 542 0
-538 -539 545 0
-542 -522 524 0
-542 -530 532 0
-542 -536 538 0
-542 -543 545 0
-545 -526 524 0
-545 -534 532 0
-545 -540 538 0
-545 -544 542 0
-526 -517 534 0
-526 -519 540 0
-526 -521 544 0
-526 -523 546 0
-534 -518 526 0
-534 -527 540 0
-534 -529 544 0
-534 -531 546 0
-540 -520 526 0
-540 -528 534 0
-540 -535 544 0
-540 -537 546 0
-544 -522 526 0
-544 -530 534 0
-544 -536 540 0
-544 -541 546 0
-546 -524 526 0
-546 -532 534 0
-546 -538 540 0
-546 -542 544 0
547 548 0
-547 -548 0
549 550 0
-549 -550 0
551 552 0
-551 -552 0
553 554 0
-553 -554 0
555 556 0
-555 -556 0
557 558 0
-557 -558 0
559 560 0
-559 -560 0
561 562 0
-561 -562 0
563 564 0
-563 -564 0
565 566 0
-565 -566 0
567 568 0
-567 -568 0
569 570 0
-569 -570 0
571 572 0
-571 -572 0
573 574 0
-573 -574 0
575 576 0
-575 -576 0
-547 -557 549 0
-547 -559 551 0
-547 -561 553 0
-547 -563 555 0
-549 -558 547 0
-549 -565 551 0
-549 -567 553 0
-549 -569 555 0
-551 -560 547 0
-551 -566 549 0
-551 -571 553 0
-551 -573 555 0
-553 -562 547 0
-553 -568 549 0
-553 -572 551 0
-553 -575 555 0
-555 -564 547 0
-555 -570 549 0
-555 -574 551 0
-555 -576 553 0
-548 -549 557 0
-548 -551 559 0
-548 -553 561 0
-548 -555 563 0
-557 -550 548 0
-557 -565 559 0
-557 -567 561 0
-557 -569 563 0
-559 -552 548 0
-559 -566 557 0
-559 -571 561 0
-559 -573 563 0
-561 -554 548 0
-561 -568 557 0
-561 -572 559 0
-561 -575 563 0
-563 -556 548 0
-563 -570 557 0
-563 -574 559 0
-563 -576 561 0
-550 -547 558 0
-550 -551 565 0
-550 -553 567 0
-550 -555 569 0
-558 -548 550 0
-558 -559 565 0
-558 -561 567 0
-558 -563 569 0
-565 -552 550 0
-565 -560 558 0
-565 -571 567 0
-565 -573 569 0
-567 -554 550 0
-567 -562 558 0
-567 -572 565 0
-567 -575 569 0
-569 -556 550 0
-569 -564 558 0
-569 -574 565 0
-569 -576 567 0
-552 -547 560 0
-552 -549 566 0
-552 -553 571 0
-552 -555 573 0
-560 -548 552 0
-560 -557 566 0
-560 -561 571 0
-560 -563 573 0
-566 -550 552 0
-566 -558 560 0
-566 -567 571 0
-566 -569 573 0
-571 -554 552 0
-571 -562 560 0
-571 -568 566 0
-571 -575 573 0
-573 -556 552 0
-573 -564 560 0
-573 -570 566 0
-573 -576 571 0
-554 -547 562 0
-554 -549 568 0
-554 -551 572 0
-554 -555 575 0
-562 -548 554 0
-562 -557 568 0
-562 -559 572 0
-562 -563 575 0
-568 -550 554 0
-568 -558 562 0
-568 -565 572 0
-568 -569 575 0
-572 -552 554 0
-572 -560 562 0
-572 -566 568 0
-572 -573 575 0
-575 -556 554 0
-575 -564 562 0
-575 -570 568 0
-575 -574 572 0
-556 -547 564 0
-556 -549 570 0
-556 -551 574 0
-556 -553 576 0
-564 -548 556 0
-564 -557 570 0
-564 -559 574 0
-564 -561 576 0
-570 -550 556 0
-570 -558 564 0
-570 -565 574 0
-570 -567 576 0
-574 -552 556 0
-574 -560 564 0
-574 -566 570 0
-574 -571 576 0
-576 -554 556 0
-576 -562 564 0
-576 -568 570 0
-576 -572 574 0
577 578 0
-577 -578 0
579 580 0
-579 -580 0
581 582 0
-581 -582 0
583 584 0
-583 -584 0
585 586 0
-585 -586 0
587 588 0
-587 -588 0
589 590 0
-589 -590 0
591 592 0
-591 -592 0
593 594 0
-593 -594 0
595 596 0
-595 -596 0
597 598 0
-597 -598 0
599 600 0
-599 -600 0
601 602 0
-601 -602 0
603 604 0
-603 -604 0
605 606 0
-605 -606 0
-577 -587 579 0
-577 -589 581 0
-577 -591 583 0
-577 -593 585 0
-579 -588 577 0
-579 -595 581 0
-579 -597 583 0
-579 -599 585 0
-581 -590 577 0
-581 -596 579 0
-581 -601 583 0
-581 -603 585 0
-583 -592 577 0
-583 -598 579 0
-583 -602 581 0
-583 -605 585 0
-585 -594 577 0
-585 -600 579 0
-585 -604 581 0
-585 -606 583 0
-578 -579 587 0
-578 -581 589 0
-578 -583 591 0
-578 -585 593 0
-587 -580 578 0
-587 -595 589 0
-587 -597 591 0
-587 -599 593 0
-589 -582 578 0
-589 -596 587 0
-589 -601 591 0
-589 -603 593 0
-591 -584 578 0
-591 -598 587 0
-591 -602 589 0
-591 -605 593 0
-593 -586 578 0
-593 -600 587 0
-593 -604 589 0
-593 -606 591 0
-580 -577 588 0
-580 -581 595 0
-580 -583 597 0
-580 -585 599 0
-588 -578 580 0
-588 -589 595 0
-588 -591 597 0
-588 -593 599 0
-595 -582 580 0
-595 -590 588 0
-595 -601 597 0
-595 -603 599 0
-597 -584 580 0
-597 -592 588 0
-597 -602 595 0
-597 -605 599 0
-599 -586 580 0
-599 -594 588 0
-599 -604 595 0
-599 -606 597 0
-582 -577 590 0
-582 -579 596 0
-582 -583 601 0
-582 -585 603 0
-590 -578 582 0
-590 -587 596 0
-590 -591 601 0
-590 -593 603 0
-596 -580 582 0
-596 -588 590 0
-596 -597 601 0
-596 -599 603 0
-601 -584 582 0
-601 -592 590 0
-601 -598 596 0
-601 -605 603 0
-603 -586 582 0
-603 -594 590 0
-603 -600 596 0
-603 -606 601 0
-584 -577 592 0
-584 -579 598 0
-584 -581 602 0
-584 -585 605 0
-592 -578 584 0
-592 -587 598 0
-592 -589 602 0
-592 -593 605 0
-598 -580 584 0
-598 -588 592 0
-598 -595 602 0
-598 -599 605 0
-602 -582 584 0
-602 -590 592 0
-602 -596 598 0
-602 -603 605 0
-605 -586 584 0
-605 -594 592 0
-605 -600 598 0
-605 -604 602 0
-586 -577 594 0
-586 -579 600 0
-586 -581 604 0
-586 -583 606 0
-594 -578 586 0
-594 -587 600 0
-594 -589 604 0
-594 -591 606 0
-600 -580 586 0
-600 -588 594 0
-600 -595 604 0
-600 -597 606 0
-604 -582 586 0
-604 -590 594 0
-604 -596 600 0
-604 -601 606 0
-606 -584 586 0
-606 -592 594 0
-606 -598 600 0
-606 -602 604 0
607 608 0
-607 -608 0
609 610 0
-609 -610 0
611 612 0
-611 -612 0
613 614 0
-613 -614 0
615 616 0
-615 -616 0
617 618 0
-617 -618 0
619 620 0
-619 -620 0
621 622 0
-621 -622 0
623 624 0
-623 -624 0
625 626 0
-625 -626 0
627 628 0
-627 -628 0
629 630 0
-629 -630 0
631 632 0
-631 -632 0
633 634 0
-633 -634 0
635 636 0
-635 -636 0
-607 -617 609 0
-607 -619 611 0
-607 -621 613 0
-607 -623 615 0
-609 -618 607 0
-609 -625 611 0
-609 -627 613 0
-609 -629 615 0
-611 -620 607 0
-611 -626 609 0
-611 -631 613 0
-611 -633 615 0
-613 -622 607 0
-613 -628 609 0
-613 -632 611 0
-613 -635 615 0
-615 -624 607 0
-615 -630 609 0
-615 -634 611 0
-615 -636 613 0
-608 -609 617 0
-608 -611 619 0
-608 -613 621 0
-608 -615 623 0
-617 -610 608 0
-617 -625 619 0
-617 -627 621 0
-617 -629 623 0
-619 -612 608 0
-619 -626 617 0
-619 -631 621 0
-619 -633 623 0
-621 -614 608 0
-621 -628 617 0
-621 -632 619 0
-621 -635 623 0
-623 -616 608 0
-623 -630 617 0
-623 -634 619 0
-623 -636 621 0
-610 -607 618 0
-610 -611 625 0
-610 -613 627 0
-610 -615 629 0
-618 -608 610 0
-618 -619 625 0
-618 -621 627 0
-618 -623 629 0
-625 -612 610 0
-625 -620 618 0
-625 -631 627 0
-625 -633 629 0
-627 -614 610 0
-627 -622 618 0
-627 -632 625 0
-627 -635 629 0
-629 -616 610 0
-629 -624 618 0
-629 -634 625 0
-629 -636 627 0
-612 -607 620 0
-612 -609 626 0
-612 -613 631 0
-612 -615 633 0
-620 -608 612 0
-620 -617 626 0
-620 -621 631 0
-620 -623 633 0
-626 -610 612 0
-626 -618 620 0
-626 -627 631 0
-626 -629 633 0
-631 -614 612 0
-631 -622 620 0
-631 -628 626 0
-631 -635 633 0
-633 -616 612 0
-633 -624 620 0
-633 -630 626 0
-633 -636 631 0
-614 -607 622 0
-614 -609 628 0
-614 -611 632 0
-614 -615 635 0
-622 -608 614 0
-622 -617 628 0
-622 -619 632 0
-622 -623 635 0
-628 -610 614 0
-628 -618 622 0
-628 -625 632 0
-628 -629 635 0
-632 -612 614 0
-632 -620 622 0
-632 -626 628 0
-632 -633 635 0
-635 -616 614 0
-635 -624 622 0
-635 -630 628 0
-635 -634 632 0
-616 -607 624 0
-616 -609 630 0
-616 -611 634 0
-616 -613 636 0
-624 -608 616 0
-624 -617 630 0
-624 -619 634 0
-624 -621 636 0
-630 -610 616 0
-630 -618 624 0
-630 -625 634 0
-630 -627 636 0
-634 -612 616 0
-634 -620 624 0
-634 -626 630 0
-634 -631 636 0
-636 -614 616 0
-636 -622 624 0
-636 -628 630 0
-636 -632 634 0
637 638 0
-637 -638 0
639 640 0
-639 -640 0
641 642 0
-641 -642 0
643 644 0
-643 -644 0
645 646 0
-645 -646 0
647 648 0
-647 -648 0
-637 -643 639 0
-637 -645 641 0
-639 -644 637 0
-639 -647 641 0
-641 -646 637 0
-641 -648 639 0
-638 -639 643 0
-638 -641 645 0
-643 -640 638 0
-643 -647 645 0
-645 -642 638 0
-645 -648 643 0
-640 -637 644 0
-640 -641 647 0
-644 -638 640 0
-644 -645 647 0
-647 -642 640 0
-647 -646 644 0
-642 -637 646 0
-642 -639 648 0
-646 -638 642 0
-646 -643 648 0
-648 -640 642 0
-648 -644 646 0
649 650 0
-649 -650 0
651 652 0
-651 -652 0
653 654 0
-653 -654 0
655 656 0
-655 -656 0
657 658 0
-657 -658 0
659 660 0
-659 -660 0
661 662 0
-661 -662 0
663 664 0
-663 -664 0
665 666 0
-665 -666 0
667 668 0
-667 -668 0
669 670 0
-669 -670 0
671 672 0
-671 -672 0
673 674 0
-673 -674 0
675 676 0
-675 -676 0
677 678 0
-677 -678 0
-649 -659 651 0
-649 -661 653 0
-649 -663 655 0
-649 -665 657 0
-651 -660 649 0
-651 -667 653 0
-651 -669 655 0
-651 -671 657 0
-653 -662 649 0
-653 -668 651 0
-653 -673 655 0
-653 -675 657 0
-655 -664 649 0
-655 -670 651 0
-655 -674 653 0
-655 -677 657 0
-657 -666 649 0
-657 -672 651 0
-657 -676 653 0
-657 -678 655 0
-650 -651 659 0
-650 -653 661 0
-650 -655 663 0
-650 -657 665 0
-659 -652 650 0
-659 -667 661 0
-659 -669 663 0
-659 -671 665 0
-661 -654 650 0
-661 -668 659 0
-661 -673 663 0
-661 -675 665 0
-663 -656 650 0
-663 -670 659 0
-663 -674 661 0
-663 -677 665 0
-665 -658 650 0
-665 -672 659 0
-665 -676 661 0
-665 -678 663 0
-652 -649 660 0
-652 -653 667 0
-652 -655 669 0
-652 -657 671 0
-660 -650 652 0
-660 -661 667 0
-660 -663 669 0
-660 -665 671 0
-667 -654 652 0
-667 -662 660 0
-667 -673 669 0
-667 -675 671 0
-669 -656 652 0
-669 -664 660 0
-669 -674 667 0
-669 -677 671 0
-671 -658 652 0
-671 -666 660 0
-671 -676 667 0
-671 -678 669 0
-654 -649 662 0
-654 -651 668 0
-654 -655 673 0
-654 -657 675 0
-662 -650 654 0
-662 -659 668 0
-662 -663 673 0
-662 -665 675 0
-668 -652 654 0
-668 -660 662 0
-668 -669 673 0
-668 -671 675 0
-673 -656 654 0
-673 -664 662 0
-673 -670 668 0
-673 -677 675 0
-675 -658 654 0
-675 -666 662 0
-675 -672 668 0
-675 -678 673 0
-656 -649 664 0
-656 -651 670 0
-656 -653 674 0
-656 -657 677 0
-664 -650 656 0
-664 -659 670 0
-664 -661 674 0
-664 -665 677 0
-670 -652 656 0
-670 -660 664 0
-670 -667 674 0
-670 -671 677 0
-674 -654 656 0
-674 -662 664 0
-674 -668 670 0
-674 -675 677 0
-677 -658 656 0
-677 -666 664 0
-677 -672 670 0
-677 -676 674 0
-658 -649 666 0
-658 -651 672 0
-658 -653 676 0
-658 -655 678 0
-666 -650 658 0
-666 -659 672 0
-666 -661 676 0
-666 -663 678 0
-672 -652 658 0
-672 -660 666 0
-672 -667 676 0
-672 -669 678 0
-676 -654 658 0
-676 -662 666 0
-676 -668 672 0
-676 -673 678 0
-678 -656 658 0
-678 -664 666 0
-678 -670 672 0
-678 -674 676 0
679 680 0
-679 -680 0
681 682 0
-681 -682 0
683 684 0
-683 -684 0
685 686 0
-685 -686 0
687 688 0
-687 -688 0
689 690 0
-689 -690 0
691 692 0
-691 -692 0
693 694 0
-693 -694 0
695 696 0
-695 -696 0
697 698 0
-697 -698 0
699 700 0
-699 -700 0
701 702 0
-701 -702 0
703 704 0
-703 -704 0
705 706 0
-705 -706 0
707 708 0
-707 -708 0
-679 -689 681 0
-679 -691 683 0
-679 -693 685 0
-679 -695 687 0
-681 -690 679 0
-681 -697 683 0
-681 -699 685 0
-681 -701 687 0
-683 -692 679 0
-683 -698 681 0
-683 -703 685 0
-683 -705 687 0
-685 -694 679 0
-685 -700 681 0
-685 -704 683 0
-685 -707 687 0
-687 -696 679 0
-687 -702 681 0
-687 -706 683 0
-687 -708 685 0
-680 -681 689 0
-680 -683 691 0
-680 -685 693 0
-680 -687 695 0
-689 -682 680 0
-689 -697 691 0
-689 -699 693 0
-689 -701 695 0
-691 -684 680 0
-691 -698 689 0
-691 -703 693 0
-691 -705 695 0
-693 -686 680 0
-693 -700 689 0
-693 -704 691 0
-693 -707 695 0
-695 -688 680 0
-695 -702 689 0
-695 -706 691 0
-695 -708 693 0
-682 -679 690 0
-682 -683 697 0
-682 -685 699 0
-682 -687 701 0
-690 -680 682 0
-690 -691 697 0
-690 -693 699 0
-690 -695 701 0
-697 -684 682 0
-697 -692 690 0
-697 -703 699 0
-697 -705 701 0
-699 -686 682 0
-699 -694 690 0
-699 -704 697 0
-699 -707 701 0
-701 -688 682 0
-701 -696 690 0
-701 -706 697 0
-701 -708 699 0
-684 -679 692 0
-684 -681 698 0
-684 -685 703 0
-684 -687 705 0
-692 -680 684 0
-692 -689 698 0
-692 -693 703 0
-692 -695 705 0
-698 -682 684 0
-698 -690 692 0
-698 -699 703 0
-698 -701 705 0
-703 -686 684 0
-703 -694 692 0
-703 -700 698 0
-703 -707 705 0
-705 -688 684 0
-705 -696 692 0
-705 -702 698 0
-705 -708 703 0
-686 -679 694 0
-686 -681 700 0
-686 -683 704 0
-686 -687 707 0
-694 -680 686 0
-694 -689 700 0
-694 -691 704 0
-694 -695 707 0
-700 -682 686 0
-700 -690 694 0
-700 -697 704 0
-700 -701 707 0
-704 -684 686 0
-704 -692 694 0
-704 -698 700 0
-704 -705 707 0
-707 -688 686 0
-707 -696 694 0
-707 -702 700 0
-707 -706 704 0
-688 -679 696 0
-688 -681 702 0
-688 -683 706 0
-688 -685 708 0
-696 -680 688 0
-696 -689 702 0
-696 -691 706 0
-696 -693 708 0
-702 -682 688 0
-702 -690 696 0
-702 -697 706 0
-702 -699 708 0
-706 -684 688 0
-706 -692 696 0
-706 -698 702 0
-706 -703 708 0
-708 -686 688 0
-708 -694 696 0
-708 -700 702 0
-708 -704 706 0
709 710 0
-709 -710 0
711 712 0
-711 -712 0
713 714 0
-713 -714 0
715 716 0
-715 -716 0
717 718 0
-717 -718 0
719 720 0
-719 -720 0
721 722 0
-721 -722 0
723 724 0
-723 -724 0
725 726 0
-725 -726 0
727 728 0
-727 -728 0
729 730 0
-729 -730 0
731 732 0
-731 -732 0
733 734 0
-733 -734 0
735 736 0
-735 -736 0
737 738 0
-737 -738 0
-709 -719 711 0
-709 -721 713 0
-709 -723 715 0
-709 -725 717 0
-711 -720 709 0
-711 -727 713 0
-711 -729 715 0
-711 -731 717 0
-713 -722 709 0
-713 -728 711 0
-713 -733 715 0
-713 -735 717 0
-715 -724 709 0
-715 -730 711 0
-715 -734 713 0
-715 -737 717 0
-717 -726 709 0
-717 -732 711 0
-717 -736 713 0
-717 -738 715 0
-710 -711 719 0
-710 -713 721 0
-710 -715 723 0
-710 -717 725 0
-719 -712 710 0
-719 -727 721 0
-719 -729 723 0
-719 -731 725 0
-721 -714 710 0
-721 -728 719 0
-721 -733 723 0
-721 -735 725 0
-723 -716 710 0
-723 -730 719 0
-723 -734 721 0
-723 -737 725 0
-725 -718 710 0
-725 -732 719 0
-725 -736 721 0
-725 -738 723 0
-712 -709 720 0
-712 -713 727 0
-712 -715 729 0
-712 -717 731 0
-720 -710 712 0
-720 -721 727 0
-720 -723 729 0
-720 -725 731 0
-727 -714 712 0
-727 -722 720 0
-727 -733 729 0
-727 -735 731 0
-729 -716 712 0
-729 -724 720 0
-729 -734 727 0
-729 -737 731 0
-731 -718 712 0
-731 -726 720 0
-731 -736 727 0
-731 -738 729 0
-714 -709 722 0
-714 -711 728 0
-714 -715 733 0
-714 -717 735 0
-722 -710 714 0
-722 -719 728 0
-722 -723 733 0
-722 -725 735 0
-728 -712 714 0
-728 -720 722 0
-728 -729 733 0
-728 -731 735 0
-733 -716 714 0
-733 -724 722 0
-733 -730 728 0
-733 -737 735 0
-735 -718 714 0
-735 -726 722 0
-735 -732 728 0
-735 -738 733 0
-716 -709 724 0
-716 -711 730 0
-716 -713 734 0
-716 -717 737 0
-724 -710 716 0
-724 -719 730 0
-724 -721 734 0
-724 -725 737 0
-730 -712 716 0
-730 -720 724 0
-730 -727 734 0
-730 -731 737 0
-734 -714 716 0
-734 -722 724 0
-734 -728 730 0
-734 -735 737 0
-737 -718 716 0
-737 -726 724 0
-737 -732 730 0
-737 -736 734 0
-718 -709 726 0
-718 -711 732 0
-718 -713 736 0
-718 -715 738 0
-726 -710 718 0
-726 -719 732 0
-726 -721 736 0
-726 -723 738 0
-732 -712 718 0
-732 -720 726 0
-732 -727 736 0
-732 -729 738 0
-736 -714 718 0
-736 -722 726 0
-736 -728 732 0
-736 -733 738 0
-738 -716 718 0
-738 -724 726 0
-738 -730 732 0
-738 -734 736 0
739 740 0
-739 -740 0
741 742 0
-741 -742 0
743 744 0
-743 -744 0
745 746 0
-745 -746 0
747 748 0
-747 -748 0
749 750 0
-749 -750 0
-739 -745 741 0
-739 -747 743 0
-741 -746 739 0
-741 -749 743 0
-743 -748 739 0
-743 -750 741 0
-740 -741 745 0
-740 -743 747 0
-745 -742 740 0
-745 -749 747 0
-747 -744 740 0
-747 -750 745 0
-742 -739 746 0
-742 -743 749 0
-746 -740 742 0
-746 -747 749 0
-749 -744 742 0
-749 -748 746 0
-744 -739 748 0
-744 -741 750 0
-748 -740 744 0
-748 -745 750 0
-750 -742 744 0
-750 -746 748 0
751 752 0
-751 -752 0
753 754 0
-753 -754 0
755 756 0
-755 -756 0
757 758 0
-757 -758 0
759 760 0
-759 -760 0
761 762 0
-761 -762 0
763 764 0
-763 -764 0
765 766 0
-765 -766 0
767 768 0
-767 -768 0
769 770 0
-769 -770 0
771 772 0
-771 -772 0
773 774 0
-773 -774 0
775 776 0
-775 -776 0
777 778 0
-777 -778 0
779 780 0
-779 -780 0
-751 -761 753 0
-751 -763 755 0
-751 -765 757 0
-751 -767 759 0
-753 -762 751 0
-753 -769 755 0
-753 -771 757 0
-753 -773 759 0
-755 -764 751 0
-755 -770 753 0
-755 -775 757 0
-755 -777 759 0
-757 -766 751 0
-757 -772 753 0
-757 -776 755 0
-757 -779 759 0
-759 -768 751 0
-759 -774 753 0
-759 -778 755 0
-759 -780 757 0
-752 -753 761 0
-752 -755 763 0
-752 -757 765 0
-752 -759 767 0
-761 -754 752 0
-761 -769 763 0
-761 -771 765 0
-761 -773 767 0
-763 -756 752 0
-763 -770 761 0
-763 -775 765 0
-763 -777 767 0
-765 -758 752 0
-765 -772 761 0
-765 -776 763 0
-765 -779 767 0
-767 -760 752 0
-767 -774 761 0
-767 -778 763 0
-767 -780 765 0
-754 -751 762 0
-754 -755 769 0
-754 -757 771 0
-754 -759 773 0
-762 -752 754 0
-762 -763 769 0
-762 -765 771 0
-762 -767 773 0
-769 -756 754 0
-769 -764 762 0
-769 -775 771 0
-769 -777 773 0
-771 -758 754 0
-771 -766 762 0
-771 -776 769 0
-771 -779 773 0
-773 -760 754 0
-773 -768 762 0
-773 -778 769 0
-773 -780 771 0
-756 -751 764 0
-756 -753 770 0
-756 -757 775 0
-756 -759 777 0
-764 -752 756 0
-764 -761 770 0
-764 -765 775 0
-764 -767 777 0
-770 -754 756 0
-770 -762 764 0
-770 -771 775 0
-770 -773 777 0
-775 -758 756 0
-775 -766 764 0
-775 -772 770 0
-775 -779 777 0
-777 -760 756 0
-777 -768 764 0
-777 -774 770 0
-777 -780 775 0
-758 -751 766 0
-758 -753 772 0
-758 -755 776 0
-758 -759 779 0
-766 -752 758 0
-766 -761 772 0
-766 -763 776 0
-766 -767 779 0
-772 -754 758 0
-772 -762 766 0
-772 -769 776 0
-772 -773 779 0
-776 -756 758 0
-776 -764 766 0
-776 -770 772 0
-776 -777 779 0
-779 -760 758 0
-779 -768 766 0
-779 -774 772 0
-779 -778 776 0
-760 -751 768 0
-760 -753 774 0
-760 -755 778 0
-760 -757 780 0
-768 -752 760 0
-768 -761 774 0
-768 -763 778 0
-768 -765 780 0
-774 -754 760 0
-774 -762 768 0
-774 -769 778 0
-774 -771 780 0
-778 -756 760 0
-778 -764 768 0
-778 -770 774 0
-778 -775 780 0
-780 -758 760 0
-780 -766 768 0
-780 -772 774 0
-780 -776 778 0
781 782 0
-781 -782 0
783 784 0
-783 -784 0
785 786 0
-785 -786 0
787 788 0
-787 -788 0
789 790 0
-789 -790 0
791 792 0
-791 -792 0
793 794 0
-793 -794 0
795 796 0
-795 -796 0
797 798 0
-797 -798 0
799 800 0
-799 -800 0
801 802 0
-801 -802 0
803 804 0
-803 -804 0
805 806 0
-805 -806 0
807 808 0
-807 -808 0
809 810 0
-809 -810 0
-781 -791 783 0
-781 -793 785 0
-781 -795 787 0
-781 -797 789 0
-783 -792 781 0
-783 -799 785 0
-783 -801 787 0
-783 -803 789 0
-785 -794 781 0
-785 -800 783 0
-785 -805 787 0
-785 -807 789 0
-787 -796 781 0
-787 -802 783 0
-787 -806 785 0
-787 -809 789 0
-789 -798 781 0
-789 -804 783 0
-789 -808 785 0
-789 -810 787 0
-782 -783 791 0
-782 -785 793 0
-782 -787 795 0
-782 -789 797 0
-791 -784 782 0
-791 -799 793 0
-791 -801 795 0
-791 -803 797 0
-793 -786 782 0
-793 -800 791 0
-793 -805 795 0
-793 -807 797 0
-795 -788 782 0
-795 -802 791 0
-795 -806 793 0
-795 -809 797 0
-797 -790 782 0
-797 -804 791 0
-797 -808 793 0
-797 -810 795 0
-784 -781 792 0
-784 -785 799 0
-784 -787 801 0
-784 -789 803 0
-792 -782 784 0
-792 -793 799 0
-792 -795 801 0
-792 -797 803 0
-799 -786 784 0
-799 -794 792 0
-799 -805 801 0
-799 -807 803 0
-801 -788 784 0
-801 -796 792 0
-801 -806 799 0
-801 -809 803 0
-803 -790 784 0
-803 -798 792 0
-803 -808 799 0
-803 -810 801 0
-786 -781 794 0
-786 -783 800 0
-786 -787 805 0
-786 -789 807 0
-794 -782 786 0
-794 -791 800 0
-794 -795 805 0
-794 -797 807 0
-800 -784 786 0
-800 -792 794 0
-800 -801 805 0
-800 -803 807 0
-805 -788 786 0
-805 -796 794 0
-805 -802 800 0
-805 -809 807 0
-807 -790 786 0
-807 -798 794 0
-807 -804 800 0
-807 -810 805 0
-788 -781 796 0
-788 -783 802 0
-788 -785 806 0
-788 -789 809 0
-796 -782 788 0
-796 -791 802 0
-796 -793 806 0
-796 -797 809 0
-802 -784 788 0
-802 -792 796 0
-802 -799 806 0
-802 -803 809 0
-806 -786 788 0
-806 -794 796 0
-806 -800 802 0
-806 -807 809 0
-809 -790 788 0
-809 -798 796 0
-809 -804 802 0
-809 -808 806 0
-790 -781 798 0
-790 -783 804 0
-790 -785 808 0
-790 -787 810 0
-798 -782 790 0
-798 -791 804 0
-798 -793 808 0
-798 -795 810 0
-804 -784 790 0
-804 -792 798 0
-804 -799 808 0
-804 -801 810 0
-808 -786 790 0
-808 -794 798 0
-808 -800 804 0
-808 -805 810 0
-810 -788 790 0
-810 -796 798 0
-810 -802 804 0
-810 -806 808 0
811 812 0
-811 -812 0
813 814 0
-813 -814 0
815 816 0
-815 -816 0
817 818 0
-817 -818 0
819 820 0
-819 -820 0
821 822 0
-821 -822 0
823 824 0
-823 -824 0
825 826 0
-825 -826 0
827 828 0
-827 -828 0
829 830 0
-829 -830 0
831 832 0
-831 -832 0
833 834 0
-833 -834 0
835 836 0
-835 -836 0
837 838 0
-837 -838 0
839 840 0
-839 -840 0
-811 -821 813 0
-811 -823 815 0
-811 -825 817 0
-811 -827 819 0
-813 -822 811 0
-813 -829 815 0
-813 -831 817 0
-813 -833 819 0
-815 -824 811 0
-815 -830 813 0
-815 -835 817 0
-815 -837 819 0
-817 -826 811 0
-817 -832 813 0
-817 -836 815 0
-817 -839 819 0
-819 -828 811 0
-819 -834 813 0
-819 -838 815 0
-819 -840 817 0
-812 -813 821 0
-812 -815 823 0
-812 -817 825 0
-812 -819 827 0
-821 -814 812 0
-821 -829 823 0
-821 -831 825 0
-821 -833 827 0
-823 -816 812 0
-823 -830 821 0
-823 -835 825 0
-823 -837 827 0
-825 -818 812 0
-825 -832 821 0
-825 -836 823 0
-825 -839 827 0
-827 -820 812 0
-827 -834 821 0
-827 -838 823 0
-827 -840 825 0
-814 -811 822 0
-814 -815 829 0
-814 -817 831 0
-814 -819 833 0
-822 -812 814 0
-822 -823 829 0
-822 -825 831 0
-822 -827 833 0
-829 -816 814 0
-829 -824 822 0
-829 -835 831 0
-829 -837 833 0
-831 -818 814 0
-831 -826 822 0
-831 -836 829 0
-831 -839 833 0
-833 -820 814 0
-833 -828 822 0
-833 -838 829 0
-833 -840 831 0
-816 -811 824 0
-816 -813 830 0
-816 -817 835 0
-816 -819 837 0
-824 -812 816 0
-824 -821 830 0
-824 -825 835 0
-824 -827 837 0
-830 -814 816 0
-830 -822 824 0
-830 -831 835 0
-830 -833 837 0
-835 -818 816 0
-835 -826 824 0
-835 -832 830 0
-835 -839 837 0
-837 -820 816 0
-837 -828 824 0
-837 -834 830 0
-837 -840 835 0
-818 -811 826 0
-818 -813 832 0
-818 -815 836 0
-818 -819 839 0
-826 -812 818 0
-826 -821 832 0
-826 -823 836 0
-826 -827 839 0
-832 -814 818 0
-832 -822 826 0
-832 -829 836 0
-832 -833 839 0
-836 -816 818 0
-836 -824 826 0
-836 -830 832 0
-836 -837 839 0
-839 -820 818 0
-839 -828 826 0
-839 -834 832 0
-839 -838 836 0
-820 -811 828 0
-820 -813 834 0
-820 -815 838 0
-820 -817 840 0
-828 -812 820 0
-828 -821 834 0
-828 -823 838 0
-828 -825 840 0
-834 -814 820 0
-834 -822 828 0
-834 -829 838 0
-834 -831 840 0
-838 -816 820 0
-838 -824 828 0
-838 -830 834 0
-838 -835 840 0
-840 -818 820 0
-840 -826 828 0
-840 -832 834 0
-840 -836 838 0
841 842 0
-841 -842 0
843 844 0
-843 -844 0
845 846 0
-845 -846 0
847 848 0
-847 -848 0
849 850 0
-849 -850 0
851 852 0
-851 -852 0
853 854 0
-853 -854 0
855 856 0
-855 -856 0
857 858 0
-857 -858 0
859 860 0
-859 -860 0
861 862 0
-861 -862 0
863 864 0
-863 -864 0
865 866 0
-865 -866 0
867 868 0
-867 -868 0
869 870 0
-869 -870 0
-841 -851 843 0
-841 -853 845 0
-841 -855 847 0
-841 -857 849 0
-843 -852 841 0
-843 -859 845 0
-843 -861 847 0
-843 -863 849 0
-845 -854 841 0
-845 -860 843 0
-845 -865 847 0
-845 -867 849 0
-847 -856 841 0
-847 -862 843 0
-847 -866 845 0
-847 -869 849 0
-849 -858 841 0
-849 -864 843 0
-849 -868 845 0
-849 -870 847 0
-842 -843 851 0
-842 -845 853 0
-842 -847 855 0
-842 -849 857 0
-851 -844 842 0
-851 -859 853 0
-851 -861 855 0
-851 -863 857 0
-853 -846 842 0
-853 -860 851 0
-853 -865 855 0
-853 -867 857 0
-855 -848 842 0
-855 -862 851 0
-855 -866 853 0
-855 -869 857 0
-857 -850 842 0
-857 -864 851 0
-857 -868 853 0
-857 -870 855 0
-844 -841 852 0
-844 -845 859 0
-844 -847 861 0
-844 -849 863 0
-852 -842 844 0
-852 -853 859 0
-852 -855 861 0
-852 -857 863 0
-859 -846 844 0
-859 -854 852 0
-859 -865 861 0
-859 -867 863 0
-861 -848 844 0
-861 -856 852 0
-861 -866 859 0
-861 -869 863 0
-863 -850 844 0
-863 -858 852 0
-863 -868 859 0
-863 -870 861 0
-846 -841 854 0
-846 -843 860 0
-846 -847 865 0
-846 -849 867 0
-854 -842 846 0
-854 -851 860 0
-854 -855 865 0
-854 -857 867 0
-860 -844 846 0
-860 -852 854 0
-860 -861 865 0
-860 -863 867 0
-865 -848 846 0
-865 -856 854 0
-865 -862 860 0
-865 -869 867 0
-867 -850 846 0
-867 -858 854 0
-867 -864 860 0
-867 -870 865 0
-848 -841 856 0
-848 -843 862 0
-848 -845 866 0
-848 -849 869 0
-856 -842 848 0
-856 -851 862 0
-856 -853 866 0
-856 -857 869 0
-862 -844 848 0
-862 -852 856 0
-862 -859 866 0
-862 -863 869 0
-866 -846 848 0
-866 -854 856 0
-866 -860 862 0
-866 -867 869 0
-869 -850 848 0
-869 -858 856 0
-869 -864 862 0
-869 -868 866 0
-850 -841 858 0
-850 -843 864 0
-850 -845 868 0
-850 -847 870 0
-858 -842 850 0
-858 -851 864 0
-858 -853 868 0
-858 -855 870 0
-864 -844 850 0
-864 -852 858 0
-864 -859 868 0
-864 -861 870 0
-868 -846 850 0
-868 -854 858 0
-868 -860 864 0
-868 -865 870 0
-870 -848 850 0
-870 -856 858 0
-870 -862 864 0
-870 -866 868 0
871 872 0
-871 -872 0
873 874 0
-873 -874 0
875 876 0
-875 -876 0
877 878 0
-877 -878 0
879 880 0
-879 -880 0
881 882 0
-881 -882 0
-871 -877 873 0
-871 -879 875 0
-873 -878 871 0
-873 -881 875 0
-875 -880 871 0
-875 -882 873 0
-872 -873 877 0
-872 -875 879 0
-877 -874 872 0
-877 -881 879 0
-879 -876 872 0
-879 -882 877 0
-874 -871 878 0
-874 -875 881 0
-878 -872 874 0
-878 -879 881 0
-881 -876 874 0
-881 -880 878 0
-876 -871 880 0
-876 -873 882 0
-880 -872 876 0
-880 -877 882 0
-882 -874 876 0
-882 -878 880 0
883 884 0
-883 -884 0
885 886 0
-885 -886 0
887 888 0
-887 -888 0
889 890 0
-889 -890 0
891 892 0
-891 -892 0
893 894 0
-893 -894 0
895 896 0
-895 -896 0
897 898 0
-897 -898 0
899 900 0
-899 -900 0
901 902 0
-901 -902 0
903 904 0
-903 -904 0
905 906 0
-905 -906 0
907 908 0
-907 -908 0
909 910 0
-909 -910 0
911 912 0
-911 -912 0
-883 -893 885 0
-883 -895 887 0
-883 -897 889 0
-883 -899 891 0
-885 -894 883 0
-885 -901 887 0
-885 -903 889 0
-885 -905 891 0
-887 -896 883 0
-887 -902 885 0
-887 -907 889 0
-887 -909 891 0
-889 -898 883 0
-889 -904 885 0
-889 -908 887 0
-889 -911 891 0
-891 -900 883 0
-891 -906 885 0
-891 -910 887 0
-891 -912 889 0
-884 -885 893 0
-884 -887 895 0
-884 -889 897 0
-884 -891 899 0
-893 -886 884 0
-893 -901 895 0
-893 -903 897 0
-893 -905 899 0
-895 -888 884 0
-895 -902 893 0
-895 -907 897 0
-895 -909 899 0
-897 -890 884 0
-897 -904 893 0
-897 -908 895 0
-897 -911 899 0
-899 -892 884 0
-899 -906 893 0
-899 -910 895 0
-899 -912 897 0
-886 -883 894 0
-886 -887 901 0
-886 -889 903 0
-886 -891 905 0
-894 -884 886 0
-894 -895 901 0
-894 -897 903 0
-894 -899 905 0
-901 -888 886 0
-901 -896 894 0
-901 -907 903 0
-901 -909 905 0
-903 -890 886 0
-903 -898 894 0
-903 -908 901 0
-903 -911 905 0
-905 -892 886 0
-905 -900 894 0
-905 -910 901 0
-905 -912 903 0
-888 -883 896 0
-888 -885 902 0
-888 -889 907 0
-888 -891 909 0
-896 -884 888 0
-896 -893 902 0
-896 -897 907 0
-896 -899 909 0
-902 -886 888 0
-902 -894 896 0
-902 -903 907 0
-902 -905 909 0
-907 -890 888 0
-907 -898 896 0
-907 -904 902 0
-907 -911 909 0
-909 -892 888 0
-909 -900 896 0
-909 -906 902 0
-909 -912 907 0
-890 -883 898 0
-890 -885 904 0
-890 -887 908 0
-890 -891 911 0
-898 -884 890 0
-898 -893 904 0
-898 -895 908 0
-898 -899 911 0
-904 -886 890 0
-904 -894 898 0
-904 -901 908 0
-904 -905 911 0
-908 -888 890 0
-908 -896 898 0
-908 -902 904 0
-908 -909 911 0
-911 -892 890 0
-911 -900 898 0
-911 -906 904 0
-911 -910 908 0
-892 -883 900 0
-892 -885 906 0
-892 -887 910 0
-892 -889 912 0
-900 -884 892 0
-900 -893 906 0
-900 -895 910 0
-900 -897 912 0
-906 -886 892 0
-906 -894 900 0
-906 -901 910 0
-906 -903 912 0
-910 -888 892 0
-910 -896 900 0
-910 -902 906 0
-910 -907 912 0
-912 -890 892 0
-912 -898 900 0
-912 -904 906 0
-912 -908 910 0
913 914 0
-913 -914 0
915 916 0
-915 -916 0
917 918 0
-917 -918 0
919 920 0
-919 -920 0
921 922 0
-921 -922 0
923 924 0
-923 -924 0
925 926 0
-925 -926 0
927 928 0
-927 -928 0
929 930 0
-929 -930 0
931 932 0
-931 -932 0
933 934 0
-933 -934 0
935 936 0
-935 -936 0
937 938 0
-937 -938 0
939 940 0
-939 -940 0
941 942 0
-941 -942 0
-913 -923 915 0
-913 -925 917 0
-913 -927 919 0
-913 -929 921 0
-915 -924 913 0
-915 -931 917 0
-915 -933 919 0
-915 -935 921 0
-917 -926 913 0
-917 -932 915 0
-917 -937 919 0
-917 -939 921 0
-919 -928 913 0
-919 -934 915 0
-919 -938 917 0
-919 -941 921 0
-921 -930 913 0
-921 -936 915 0
-921 -940 917 0
-921 -942 919 0
-914 -915 923 0
-914 -917 925 0
-914 -919 927 0
-914 -921 929 0
-923 -916 914 0
-923 -931 925 0
-923 -933 927 0
-923 -935 929 0
-925 -918 914 0
-925 -932 923 0
-925 -937 927 0
-925 -939 929 0
-927 -920 914 0
-927 -934 923 0
-927 -938 925 0
-927 -941 929 0
-929 -922 914 0
-929 -936 923 0
-929 -940 925 0
-929 -942 927 0
-916 -913 924 0
-916 -917 931 0
-916 -919 933 0
-916 -921 935 0
-924 -914 916 0
-924 -925 931 0
-924 -927 933 0
-924 -929 935 0
-931 -918 916 0
-931 -926 924 0
-931 -937 933 0
-931 -939 935 0
-933 -920 916 0
-933 -928 924 0
-933 -938 931 0
-933 -941 935 0
-935 -922 916 0
-935 -930 924 0
-935 -940 931 0
-935 -942 933 0
-918 -913 926 0
-918 -915 932 0
-918 -919 937 0
-918 -921 939 0
-926 -914 918 0
-926 -923 932 0
-926 -927 937 0
-926 -929 939 0
-932 -916 918 0
-932 -924 926 0
-932 -933 937 0
-932 -935 939 0
-937 -920 918 0
-937 -928 926 0
-937 -934 932 0
-937 -941 939 0
-939 -922 918 0
-939 -930 926 0
-939 -936 932 0
-939 -942 937 0
-920 -913 928 0
-920 -915 934 0
-920 -917 938 0
-920 -921 941 0
-928 -914 920 0
-928 -923 934 0
-928 -925 938 0
-928 -929 941 0
-934 -916 920 0
-934 -924 928 0
-934 -931 938 0
-934 -935 941 0
-938 -918 920 0
-938 -926 928 0
-938 -932 934 0
-938 -939 941 0
-941 -922 920 0
-941 -930 928 0
-941 -936 934 0
-941 -940 938 0
-922 -913 930 0
-922 -915 936 0
-922 -917 940 0
-922 -919 942 0
-930 -914 922 0
-930 -923 936 0
-930 -925 940 0
-930 -927 942 0
-936 -916 922 0
-936 -924 930 0
-936 -931 940 0
-936 -933 942 0
-940 -918 922 0
-940 -926 930 0
-940 -932 936 0
-940 -937 942 0
-942 -920 922 0
-942 -928 930 0
-942 -934 936 0
-942 -938 940 0
943 944 0
-943 -944 0
945 946 0
-945 -946 0
947 948 0
-947 -948 0
949 950 0
-949 -950 0
951 952 0
-951 -952 0
953 954 0
-953 -954 0
-943 -949 945 0
-943 -951 947 0
-945 -950 943 0
-945 -953 947 0
-947 -952 943 0
-947 -954 945 0
-944 -945 949 0
-944 -947 951 0
-949 -946 944 0
-949 -953 951 0
-951 -948 944 0
-951 -954 949 0
-946 -943 950 0
-946 -947 953 0
-950 -944 946 0
-950 -951 953 0
-953 -948 946 0
-953 -952 950 0
-948 -943 952 0
-948 -945 954 0
-952 -944 948 0
-952 -949 954 0
-954 -946 948 0
-954 -950 952 0
955 956 0
-955 -956 0
957 958 0
-957 -958 0
959 960 0
-959 -960 0
961 962 0
-961 -962 0
963 964 0
-963 -964 0
965 966 0
-965 -966 0
967 968 0
-967 -968 0
969 970 0
-969 -970 0
971 972 0
-971 -972 0
973 974 0
-973 -974 0
975 976 0
-975 -976 0
977 978 0
-977 -978 0
979 980 0
-979 -980 0
981 982 0
-981 -982 0
983 984 0
-983 -984 0
-955 -965 957 0
-955 -967 959 0
-955 -969 961 0
-955 -971 963 0
-957 -966 955 0
-957 -973 959 0
-957 -975 961 0
-957 -977 963 0
-959 -968 955 0
-959 -974 957 0
-959 -979 961 0
-959 -981 963 0
-961 -970 955 0
-961 -976 957 0
-961 -980 959 0
-961 -983 963 0
-963 -972 955 0
-963 -978 957 0
-963 -982 959 0
-963 -984 961 0
-956 -957 965 0
-956 -959 967 0
-956 -961 969 0
-956 -963 971 0
-965 -958 956 0
-965 -973 967 0
-965 -975 969 0
-965 -977 971 0
-967 -960 956 0
-967 -974 965 0
-967 -979 969 0
-967 -981 971 0
-969 -962 956 0
-969 -976 965 0
-969 -980 967 0
-969 -983 971 0
-971 -964 956 0
-971 -978 965 0
-971 -982 967 0
-971 -984 969 0
-958 -955 966 0
-958 -959 973 0
-958 -961 975 0
-958 -963 977 0
-966 -956 958 0
-966 -967 973 0
-966 -969 975 0
-966 -971 977 0
-973 -960 958 0
-973 -968 966 0
-973 -979 975 0
-973 -981 977 0
-975 -962 958 0
-975 -970 966 0
-975 -980 973 0
-975 -983 977 0
-977 -964 958 0
-977 -972 966 0
-977 -982 973 0
-977 -984 975 0
-960 -955 968 0
-960 -957 974 0
-960 -961 979 0
-960 -963 981 0
-968 -956 960 0
-968 -965 974 0
-968 -969 979 0
-968 -971 981 0
-974 -958 960 0
-974 -966 968 0
-974 -975 979 0
-974 -977 981 0
-979 -962 960 0
-979 -970 968 0
-979 -976 974 0
-979 -983 981 0
-981 -964 960 0
-981 -972 968 0
-981 -978 974 0
-981 -984 979 0
-962 -955 970 0
-962 -957 976 0
-962 -959 980 0
-962 -963 983 0
-970 -956 962 0
-970 -965 976 0
-970 -967 980 0
-970 -971 983 0
-976 -958 962 0
-976 -966 970 0
-976 -973 980 0
-976 -977 983 0
-980 -960 962 0
-980 -968 970 0
-980 -974 976 0
-980 -981 983 0
-983 -964 962 0
-983 -972 970 0
-983 -978 976 0
-983 -982 980 0
-964 -955 972 0
-964 -957 978 0
-964 -959 982 0
-964 -961 984 0
-972 -956 964 0
-972 -965 978 0
-972 -967 982 0
-972 -969 984 0
-978 -958 964 0
-978 -966 972 0
-978 -973 982 0
-978 -975 984 0
-982 -960 964 0
-982 -968 972 0
-982 -974 978 0
-982 -979 984 0
-984 -962 964 0
-984 -970 972 0
-984 -976 978 0
-984 -980 982 0
985 986 0
-985 -986 0
987 988 0
-987 -988 0
989 990 0
-989 -990 0
991 992 0
-991 -992 0
993 994 0
-993 -994 0
995 996 0
-995 -996 0
997 998 0
-997 -998 0
999 1000 0
-999 -1000 0
1001 1002 0
-1001 -1002 0
1003 1004 0
-1003 -1004 0
1005 1006 0
-1005 -1006 0
1007 1008 0
-1007 -1008 0
1009 1010 0
-1009 -1010 0
1011 1012 0
-1011 -1012 0
1013 1014 0
-1013 -1014 0
-985 -995 987 0
-985 -997 989 0
-985 -999 991 0
-985 -1001 993 0
-987 -996 985 0
-987 -1003 989 0
-987 -1005 991 0
-987 -1007 993 0
-989 -998 985 0
-989 -1004 987 0
-989 -1009 991 0
-989 -1011 993 0
-991 -1000 985 0
-991 -1006 987 0
-991 -1010 989 0
-991 -1013 993 0
-993 -1002 985 0
-993 -1008 987 0
-993 -1012 989 0
-993 -1014 991 0
-986 -987 995 0
-986 -989 997 0
-986 -991 999 0
-986 -993 1001 0
-995 -988 986 0
-995 -1003 997 0
-995 -1005 999 0
-995 -1007 1001 0
-997 -990 986 0
-997 -1004 995 0
-997 -1009 999 0
-997 -1011 1001 0
-999 -992 986 0
-999 -1006 995 0
-999 -1010 997 0
-999 -1013 1001 0
-1001 -994 986 0
-1001 -1008 995 0
-1001 -1012 997 0
-1001 -1014 999 0
-988 -985 996 0
-988 -989 1003 0
-988 -991 1005 0
-988 -993 1007 0
-996 -986 988 0
-996 -997 1003 0
-996 -999 1005 0
-996 -1001 1007 0
-1003 -990 988 0
-1003 -998 996 0
-1003 -1009 1005 0
-1003 -1011 1007 0
-1005 -992 988 0
-1005 -1000 996 0
-1005 -1010 1003 0
-1005 -1013 1007 0
-1007 -994 988 0
-1007 -1002 996 0
-1007 -1012 1003 0
-1007 -1014 1005 0
-990 -985 998 0
-990 -987 1004 0
-990 -991 1009 0
-990 -993 1011 0
-998 -986 990 0
-998 -995 1004 0
-998 -999 1009 0
-998 -1001 1011 0
-1004 -988 990 0
-1004 -996 998 0
-1004 -1005 1009 0
-1004 -1007 1011 0
-1009 -992 990 0
-1009 -1000 998 0
-1009 -1006 1004 0
-1009 -1013 1011 0
-1011 -994 990 0
-1011 -1002 998 0
-1011 -1008 1004 0
-1011 -1014 1009 0
-992 -985 1000 0
-992 -987 1006 0
-992 -989 1010 0
-992 -993 1013 0
-1000 -986 992 0
-1000 -995 1006 0
-1000 -997 1010 0
-1000 -1001 1013 0
-1006 -988 992 0
-1006 -996 1000 0
-1006 -1003 1010 0
-1006 -1007 1013 0
-1010 -990 992 0
-1010 -998 1000 0
-1010 -1004 1006 0
-1010 -1011 1013 0
-1013 -994 992 0
-1013 -1002 1000 0
-1013 -1008 1006 0
-1013 -1012 1010 0
-994 -985 1002 0
-994 -987 1008 0
-994 -989 1012 0
-994 -991 1014 0
-1002 -986 994 0
-1002 -995 1008 0
-1002 -997 1012 0
-1002 -999 1014 0
-1008 -988 994 0
-1008 -996 1002 0
-1008 -1003 1012 0
-1008 -1005 1014 0
-1012 -990 994 0
-1012 -998 1002 0
-1012 -1004 1008 0
-1012 -1009 1014 0
-1014 -992 994 0
-1014 -1000 1002 0
-1014 -1006 1008 0
-1014 -1010 1012 0
1015 1016 0
-1015 -1016 0
1017 1018 0
-1017 -1018 0
1019 1020 0
-1019 -1020 0
1021 1022 0
-1021 -1022 0
1023 1024 0
-1023 -1024 0
1025 1026 0
-1025 -1026 0
-1015 -1021 1017 0
-1015 -1023 1019 0
-1017 -1022 1015 0
-1017 -1025 1019 0
-1019 -1024 1015 0
-1019 -1026 1017 0
-1016 -1017 1021 0
-1016 -1019 1023 0
-1021 -1018 1016 0
-1021 -1025 1023 0
-1023 -1020 1016 0
-1023 -1026 1021 0
-1018 -1015 1022 0
-1018 -1019 1025 0
-1022 -1016 1018 0
-1022 -1023 1025 0
-1025 -1020 1018 0
-1025 -1024 1022 0
-1020 -1015 1024 0
-1020 -1017 1026 0
-1024 -1016 1020 0
-1024 -1021 1026 0
-1026 -1018 1020 0
-1026 -1022 1024 0
1027 1028 0
-1027 -1028 0
1029 1030 0
-1029 -1030 0
1031 1032 0
-1031 -1032 0
1033 1034 0
-1033 -1034 0
1035 1036 0
-1035 -1036 0
1037 1038 0
-1037 -1038 0
1039 1040 0
-1039 -1040 0
1041 1042 0
-1041 -1042 0
1043 1044 0
-1043 -1044 0
1045 1046 0
-1045 -1046 0
1047 1048 0
-1047 -1048 0
1049 1050 0
-1049 -1050 0
1051 1052 0
-1051 -1052 0
1053 1054 0
-1053 -1054 0
1055 1056 0
-1055 -1056 0
-1027 -1037 1029 0
-1027 -1039 1031 0
-1027 -1041 1033 0
-1027 -1043 1035 0
-1029 -1038 1027 0
-1029 -1045 1031 0
-1029 -1047 1033 0
-1029 -1049 1035 0
-1031 -1040 1027 0
-1031 -1046 1029 0
-1031 -1051 1033 0
-1031 -1053 1035 0
-1033 -1042 1027 0
-1033 -1048 1029 0
-1033 -1052 1031 0
-1033 -1055 1035 0
-1035 -1044 1027 0
-1035 -1050 1029 0
-1035 -1054 1031 0
-1035 -1056 1033 0
-1028 -1029 1037 0
-1028 -1031 1039 0
-1028 -1033 1041 0
-1028 -1035 1043 0
-1037 -1030 1028 0
-1037 -1045 1039 0
-1037 -1047 1041 0
-1037 -1049 1043 0
-1039 -1032 1028 0
-1039 -1046 1037 0
-1039 -1051 1041 0
-1039 -1053 1043 0
-1041 -1034 1028 0
-1041 -1048 1037 0
-1041 -1052 1039 0
-1041 -1055 1043 0
-1043 -1036 1028 0
-1043 -1050 1037 0
-1043 -1054 1039 0
-1043 -1056 1041 0
-1030 -1027 1038 0
-1030 -1031 1045 0
-1030 -1033 1047 0
-1030 -1035 1049 0
-1038 -1028 1030 0
-1038 -1039 1045 0
-1038 -1041 1047 0
-1038 -1043 1049 0
-1045 -1032 1030 0
-1045 -1040 1038 0
-1045 -1051 1047 0
-1045 -1053 1049 0
-1047 -1034 1030 0
-1047 -1042 1038 0
-1047 -1052 1045 0
-1047 -1055 1049 0
-1049 -1036 1030 0
-1049 -1044 1038 0
-1049 -1054 1045 0
-1049 -1056 1047 0
-1032 -1027 1040 0
-1032 -1029 1046 0
-1032 -1033 1051 0
-1032 -1035 1053 0
-1040 -1028 1032 0
-1040 -1037 1046 0
-1040 -1041 1051 0
-1040 -1043 1053 0
-1046 -1030 1032 0
-1046 -1038 1040 0
-1046 -1047 1051 0
-1046 -1049 1053 0
-1051 -1034 1032 0
-1051 -1042 1040 0
-1051 -1048 1046 0
-1051 -1055 1053 0
-1053 -1036 1032 0
-1053 -1044 1040 0
-1053 -1050 1046 0
-1053 -1056 1051 0
-1034 -1027 1042 0
-1034 -1029 1048 0
-1034 -1031 1052 0
-1034 -1035 1055 0
-1042 -1028 1034 0
-1042 -1037 1048 0
-1042 -1039 1052 0
-1042 -1043 1055 0
-1048 -1030 1034 0
-1048 -1038 1042 0
-1048 -1045 1052 0
-1048 -1049 1055 0
-1052 -1032 1034 0
-1052 -1040 1042 0
-1052 -1046 1048 0
-1052 -1053 1055 0
-1055 -1036 1034 0
-1055 -1044 1042 0
-1055 -1050 1048 0
-1055 -1054 1052 0
-1036 -1027 1044 0
-1036 -1029 1050 0
-1036 -1031 1054 0
-1036 -1033 1056 0
-1044 -1028 1036 0
-1044 -1037 1050 0
-1044 -1039 1054 0
-1044 -1041 1056 0
-1050 -1030 1036 0
-1050 -1038 1044 0
-1050 -1045 1054 0
-1050 -1047 1056 0
-1054 -1032 1036 0
-1054 -1040 1044 0
-1054 -1046 1050 0
-1054 -1051 1056 0
-1056 -1034 1036 0
-1056 -1042 1044 0
-1056 -1048 1050 0
-1056 -1052 1054 0
1057 1058 0
-1057 -1058 0
1059 1060 0
-1059 -1060 0
1061 1062 0
-1061 -1062 0
1063 1064 0
-1063 -1064 0
1065 1066 0
-1065 -1066 0
1067 1068 0
-1067 -1068 0
-1057 -1063 1059 0
-1057 -1065 1061 0
-1059 -1064 1057 0
-1059 -1067 1061 0
-1061 -1066 1057 0
-1061 -1068 1059 0
-1058 -1059 1063 0
-1058 -1061 1065 0
-1063 -1060 1058 0
-1063 -1067 1065 0
-1065 -1062 1058 0
-1065 -1068 1063 0
-1060 -1057 1064 0
-1060 -1061 1067 0
-1064 -1058 1060 0
-1064 -1065 1067 0
-1067 -1062 1060 0
-1067 -1066 1064 0
-1062 -1057 1066 0
-1062 -1059 1068 0
-1066 -1058 1062 0
-1066 -1063 1068 0
-1068 -1060 1062 0
-1068 -1064 1066 0
1069 1070 0
-1069 -1070 0
1071 1072 0
-1071 -1072 0
1073 1074 0
-1073 -1074 0
1075 1076 0
-1075 -1076 0
1077 1078 0
-1077 -1078 0
1079 1080 0
-1079 -1080 0
-1069 -1075 1071 0
-1069 -1077 1073 0
-1071 -1076 1069 0
-1071 -1079 1073 0
-1073 -1078 1069 0
-1073 -1080 1071 0
-1070 -1071 1075 0
-1070 -1073 1077 0
-1075 -1072 1070 0
-1075 -1079 1077 0
-1077 -1074 1070 0
-1077 -1080 1075 0
-1072 -1069 1076 0
-1072 -1073 1079 0
-1076 -1070 1072 0
-1076 -1077 1079 0
-1079 -1074 1072 0
-1079 -1078 1076 0
-1074 -1069 1078 0
-1074 -1071 1080 0
-1078 -1070 1074 0
-1078 -1075 1080 0
-1080 -1072 1074 0
-1080 -1076 1078 0
1081 1082 0
-1081 -1082 0
1083 1084 0
-1083 -1084 0
1085 1086 0
-1085 -1086 0
1087 1088 0
-1087 -1088 0
1089 1090 0
-1089 -1090 0
1091 1092 0
-1091 -1092 0
1093 1094 0
-1093 -1094 0
1095 1096 0
-1095 -1096 0
1097 1098 0
-1097 -1098 0
1099 1100 0
-1099 -1100 0
1101 1102 0
-1101 -1102 0
1103 1104 0
-1103 -1104 0
-1099 -1103 1101 0
-1101 -1104 1099 0
-1100 -1101 1103 0
-1103 -1102 1100 0
-1102 -1099 1104 0
-1104 -1100 1102 0
1105 1106 0
-1105 -1106 0
1107 1108 0
-1107 -1108 0
1109 1110 0
-1109 -1110 0
-1105 -1109 1107 0
-1107 -1110 1105 0
-1106 -1107 1109 0
-1109 -1108 1106 0
-1108 -1105 1110 0
-1110 -1106 1108 0
1111 1112 0
-1111 -1112 0
1113 1114 0
-1113 -1114 0
1115 1116 0
-1115 -1116 0
-1111 -1115 1113 0
-1113 -1116 1111 0
-1112 -1113 1115 0
-1115 -1114 1112 0
-1114 -1111 1116 0
-1116 -1112 1114 0
1117 1118 0
-1117 -1118 0
1119 1120 0
-1119 -1120 0
1121 1122 0
-1121 -1122 0
-1117 -1121 1119 0
-1119 -1122 1117 0
-1118 -1119 1121 0
-1121 -1120 1118 0
-1120 -1117 1122 0
-1122 -1118 1120 0
1123 1124 0
-1123 -1124 0
1125 1126 0
-1125 -1126 0
1127 1128 0
-1127 -1128 0
-1123 -1127 1125 0
-1125 -1128 1123 0
-1124 -1125 1127 0
-1127 -1126 1124 0
-1126 -1123 1128 0
-1128 -1124 1126 0
1129 1130 0
-1129 -1130 0
1131 1132 0
-1131 -1132 0
1133 1134 0
-1133 -1134 0
-1129 -1133 1131 0
-1131 -1134 1129 0
-1130 -1131 1133 0
-1133 -1132 1130 0
-1132 -1129 1134 0
-1134 -1130 1132 0
1135 1136 0
-1135 -1136 0
1137 1138 0
-1137 -1138 0
1139 1140 0
-1139 -1140 0
-1135 -1139 1137 0
-1137 -1140 1135 0
-1136 -1137 1139 0
-1139 -1138 1136 0
-1138 -1135 1140 0
-1140 -1136 1138 0
1141 1142 0
-1141 -1142 0
1143 1144 0
-1143 -1144 0
1145 1146 0
-1145 -1146 0
-1141 -1145 1143 0
-1143 -1146 1141 0
-1142 -1143 1145 0
-1145 -1144 1142 0
-1144 -1141 1146 0
-1146 -1142 1144 0
1147 1148 0
-1147 -1148 0
1149 1150 0
-1149 -1150 0
1151 1152 0
-1151 -1152 0
-1147 -1151 1149 0
-1149 -1152 1147 0
-1148 -1149 1151 0
-1151 -1150 1148 0
-1150 -1147 1152 0
-1152 -1148 1150 0
1153 1154 0
-1153 -1154 0
1155 1156 0
-1155 -1156 0
1157 1158 0
-1157 -1158 0
1159 1160 0
-1159 -1160 0
1161 1162 0
-1161 -1162 0
-1157 -1161 1159 0
-1159 -1162 1157 0
-1158 -1159 1161 0
-1161 -1160 1158 0
-1160 -1157 1162 0
-1162 -1158 1160 0
1163 1164 0
-1163 -1164 0
1165 1166 0
-1165 -1166 0
1167 1168 0
-1167 -1168 0
-1163 -1167 1165 0
-1165 -1168 1163 0
-1164 -1165 1167 0
-1167 -1166 1164 0
-1166 -1163 1168 0
-1168 -1164 1166 0
1169 1170 0
-1169 -1170 0
1171 1172 0
-1171 -1172 0
1173 1174 0
-1173 -1174 0
-1169 -1173 1171 0
-1171 -1174 1169 0
-1170 -1171 1173 0
-1173 -1172 1170 0
-1172 -1169 1174 0
-1174 -1170 1172 0
1175 1176 0
-1175 -1176 0
1177 1178 0
-1177 -1178 0
1179 1180 0
-1179 -1180 0
-1175 -1179 1177 0
-1177 -1180 1175 0
-1176 -1177 1179 0
-1179 -1178 1176 0
-1178 -1175 1180 0
-1180 -1176 1178 0
1181 1182 0
-1181 -1182 0
1183 1184 0
-1183 -1184 0
1185 1186 0
-1185 -1186 0
-1181 -1185 1183 0
-1183 -1186 1181 0
-1182 -1183 1185 0
-1185 -1184 1182 0
-1184 -1181 1186 0
-1186 -1182 1184 0
1187 1188 0
-1187 -1188 0
1189 1190 0
-1189 -1190 0
1191 1192 0
-1191 -1192 0
-1187 -1191 1189 0
-1189 -1192 1187 0
-1188 -1189 1191 0
-1191 -1190 1188 0
-1190 -1187 1192 0
-1192 -1188 1190 0
1193 1194 0
-1193 -1194 0
1195 1196 0
-1195 -1196 0
1197 1198 0
-1197 -1198 0
-1193 -1197 1195 0
-1195 -1198 1193 0
-1194 -1195 1197 0
-1197 -1196 1194 0
-1196 -1193 1198 0
-1198 -1194 1196 0
1199 1200 0
-1199 -1200 0
1201 1202 0
-1201 -1202 0
1203 1204 0
-1203 -1204 0
-1199 -1203 1201 0
-1201 -1204 1199 0
-1200 -1201 1203 0
-1203 -1202 1200 0
-1202 -1199 1204 0
-1204 -1200 1202 0
1205 1206 0
-1205 -1206 0
1207 1208 0
-1207 -1208 0
1209 1210 0
-1209 -1210 0
1211 1212 0
-1211 -1212 0
-1207 -1211 1209 0
-1209 -1212 1207 0
-1208 -1209 1211 0
-1211 -1210 1208 0
-1210 -1207 1212 0
-1212 -1208 1210 0
1213 1214 0
-1213 -1214 0
1215 1216 0
-1215 -1216 0
1217 1218 0
-1217 -1218 0
-1213 -1217 1215 0
-1215 -1218 1213 0
-1214 -1215 1217 0
-1217 -1216 1214 0
-1216 -1213 1218 0
-1218 -1214 1216 0
1219 1220 0
-1219 -1220 0
1221 1222 0
-1221 -1222 0
1223 1224 0
-1223 -1224 0
-1219 -1223 1221 0
-1221 -1224 1219 0
-1220 -1221 1223 0
-1223 -1222 1220 0
-1222 -1219 1224 0
-1224 -1220 1222 0
1225 1226 0
-1225 -1226 0
1227 1228 0
-1227 -1228 0
1229 1230 0
-1229 -1230 0
-1225 -1229 1227 0
-1227 -1230 1225 0
-1226 -1227 1229 0
-1229 -1228 1226 0
-1228 -1225 1230 0
-1230 -1226 1228 0
1231 1232 0
-1231 -1232 0
1233 1234 0
-1233 -1234 0
1235 1236 0
-1235 -1236 0
-1231 -1235 1233 0
-1233 -1236 1231 0
-1232 -1233 1235 0
-1235 -1234 1232 0
-1234 -1231 1236 0
-1236 -1232 1234 0
1237 1238 0
-1237 -1238 0
1239 1240 0
-1239 -1240 0
1241 1242 0
-1241 -1242 0
-1237 -1241 1239 0
-1239 -1242 1237 0
-1238 -1239 1241 0
-1241 -1240 1238 0
-1240 -1237 1242 0
-1242 -1238 1240 0
1243 1244 0
-1243 -1244 0
1245 1246 0
-1245 -1246 0
1247 1248 0
-1247 -1248 0
-1243 -1247 1245 0
-1245 -1248 1243 0
-1244 -1245 1247 0
-1247 -1246 1244 0
-1246 -1243 1248 0
-1248 -1244 1246 0
1249 1250 0
-1249 -1250 0
1251 1252 0
-1251 -1252 0
1253 1254 0
-1253 -1254 0
1255 1256 0
-1255 -1256 0
-1251 -1255 1253 0
-1253 -1256 1251 0
-1252 -1253 1255 0
-1255 -1254 1252 0
-1254 -1251 1256 0
-1256 -1252 1254 0
1257 1258 0
-1257 -1258 0
1259 1260 0
-1259 -1260 0
1261 1262 0
-1261 -1262 0
-1257 -1261 1259 0
-1259 -1262 1257 0
-1258 -1259 1261 0
-1261 -1260 1258 0
-1260 -1257 1262 0
-1262 -1258 1260 0
1263 1264 0
-1263 -1264 0
1265 1266 0
-1265 -1266 0
1267 1268 0
-1267 -1268 0
-1263 -1267 1265 0
-1265 -1268 1263 0
-1264 -1265 1267 0
-1267 -1266 1264 0
-1266 -1263 1268 0
-1268 -1264 1266 0
1269 1270 0
-1269 -1270 0
1271 1272 0
-1271 -1272 0
1273 1274 0
-1273 -1274 0
-1269 -1273 1271 0
-1271 -1274 1269 0
-1270 -1271 1273 0
-1273 -1272 1270 0
-1272 -1269 1274 0
-1274 -1270 1272 0
1275 1276 0
-1275 -1276 0
1277 1278 0
-1277 -1278 0
1279 1280 0
-1279 -1280 0
-1275 -1279 1277 0
-1277 -1280 1275 0
-1276 -1277 1279 0
-1279 -1278 1276 0
-1278 -1275 1280 0
-1280 -1276 1278 0
1281 1282 0
-1281 -1282 0
1283 1284 0
-1283 -1284 0
1285 1286 0
-1285 -1286 0
-1281 -1285 1283 0
-1283 -1286 1281 0
-1282 -1283 1285 0
-1285 -1284 1282 0
-1284 -1281 1286 0
-1286 -1282 1284 0
1287 1288 0
-1287 -1288 0
1289 1290 0
-1289 -1290 0
1291 1292 0
-1291 -1292 0
-1287 -1291 1289 0
-1289 -1292 1287 0
-1288 -1289 1291 0
-1291 -1290 1288 0
-1290 -1287 1292 0
-1292 -1288 1290 0
1293 1294 0
-1293 -1294 0
1295 1296 0
-1295 -1296 0
1297 1298 0
-1297 -1298 0
1299 1300 0
-1299 -1300 0
1301 1302 0
-1301 -1302 0
-1297 -1301 1299 0
-1299 -1302 1297 0
-1298 -1299 1301 0
-1301 -1300 1298 0
-1300 -1297 1302 0
-1302 -1298 1300 0
1303 1304 0
-1303 -1304 0
1305 1306 0
-1305 -1306 0
1307 1308 0
-1307 -1308 0
-1303 -1307 1305 0
-1305 -1308 1303 0
-1304 -1305 1307 0
-1307 -1306 1304 0
-1306 -1303 1308 0
-1308 -1304 1306 0
1309 1310 0
-1309 -1310 0
1311 1312 0
-1311 -1312 0
1313 1314 0
-1313 -1314 0
-1309 -1313 1311 0
-1311 -1314 1309 0
-1310 -1311 1313 0
-1313 -1312 1310 0
-1312 -1309 1314 0
-1314 -1310 1312 0
1315 1316 0
-1315 -1316 0
1317 1318 0
-1317 -1318 0
1319 1320 0
-1319 -1320 0
-1315 -1319 1317 0
-1317 -1320 1315 0
-1316 -1317 1319 0
-1319 -1318 1316 0
-1318 -1315 1320 0
-1320 -1316 1318 0
1321 1322 0
-1321 -1322 0
1323 1324 0
-1323 -1324 0
1325 1326 0
-1325 -1326 0
-1321 -1325 1323 0
-1323 -1326 1321 0
-1322 -1323 1325 0
-1325 -1324 1322 0
-1324 -1321 1326 0
-1326 -1322 1324 0
1327 1328 0
-1327 -1328 0
1329 1330 0
-1329 -1330 0
1331 1332 0
-1331 -1332 0
-1327 -1331 1329 0
-1329 -1332 1327 0
-1328 -1329 1331 0
-1331 -1330 1328 0
-1330 -1327 1332 0
-1332 -1328 1330 0
1333 1334 0
-1333 -1334 0
1335 1336 0
-1335 -1336 0
1337 1338 0
-1337 -1338 0
1339 1340 0
-1339 -1340 0
-1335 -1339 1337 0
-1337 -1340 1335 0
-1336 -1337 1339 0
-1339 -1338 1336 0
-1338 -1335 1340 0
-1340 -1336 1338 0
1341 1342 0
-1341 -1342 0
1343 1344 0
-1343 -1344 0
1345 1346 0
-1345 -1346 0
-1341 -1345 1343 0
-1343 -1346 1341 0
-1342 -1343 1345 0
-1345 -1344 1342 0
-1344 -1341 1346 0
-1346 -1342 1344 0
1347 1348 0
-1347 -1348 0
1349 1350 0
-1349 -1350 0
1351 1352 0
-1351 -1352 0
-1347 -1351 1349 0
-1349 -1352 1347 0
-1348 -1349 1351 0
-1351 -1350 1348 0
-1350 -1347 1352 0
-1352 -1348 1350 0
1353 1354 0
-1353 -1354 0
1355 1356 0
-1355 -1356 0
1357 1358 0
-1357 -1358 0
-1353 -1357 1355 0
-1355 -1358 1353 0
-1354 -1355 1357 0
-1357 -1356 1354 0
-1356 -1353 1358 0
-1358 -1354 1356 0
1359 1360 0
-1359 -1360 0
1361 1362 0
-1361 -1362 0
1363 1364 0
-1363 -1364 0
-1359 -1363 1361 0
-1361 -1364 1359 0
-1360 -1361 1363 0
-1363 -1362 1360 0
-1362 -1359 1364 0
-1364 -1360 1362 0
1365 1366 0
-1365 -1366 0
1367 1368 0
-1367 -1368 0
1369 1370 0
-1369 -1370 0
1371 1372 0
-1371 -1372 0
-1367 -1371 1369 0
-1369 -1372 1367 0
-1368 -1369 1371 0
-1371 -1370 1368 0
-1370 -1367 1372 0
-1372 -1368 1370 0
1373 1374 0
-1373 -1374 0
1375 1376 0
-1375 -1376 0
1377 1378 0
-1377 -1378 0
-1373 -1377 1375 0
-1375 -1378 1373 0
-1374 -1375 1377 0
-1377 -1376 1374 0
-1376 -1373 1378 0
-1378 -1374 1376 0
1379 1380 0
-1379 -1380 0
1381 1382 0
-1381 -1382 0
1383 1384 0
-1383 -1384 0
-1379 -1383 1381 0
-1381 -1384 1379 0
-1380 -1381 1383 0
-1383 -1382 1380 0
-1382 -1379 1384 0
-1384 -1380 1382 0
1385 1386 0
-1385 -1386 0
1387 1388 0
-1387 -1388 0
1389 1390 0
-1389 -1390 0
-1385 -1389 1387 0
-1387 -1390 1385 0
-1386 -1387 1389 0
-1389 -1388 1386 0
-1388 -1385 1390 0
-1390 -1386 1388 0
1391 1392 0
-1391 -1392 0
1393 1394 0
-1393 -1394 0
1395 1396 0
-1395 -1396 0
-1391 -1395 1393 0
-1393 -1396 1391 0
-1392 -1393 1395 0
-1395 -1394 1392 0
-1394 -1391 1396 0
-1396 -1392 1394 0
1397 1398 0
-1397 -1398 0
1399 1400 0
-1399 -1400 0
1401 1402 0
-1401 -1402 0
1403 1404 0
-1403 -1404 0
1405 1406 0
-1405 -1406 0
-1401 -1405 1403 0
-1403 -1406 1401 0
-1402 -1403 1405 0
-1405 -1404 1402 0
-1404 -1401 1406 0
-1406 -1402 1404 0
1407 1408 0
-1407 -1408 0
1409 1410 0
-1409 -1410 0
1411 1412 0
-1411 -1412 0
-1407 -1411 1409 0
-1409 -1412 1407 0
-1408 -1409 1411 0
-1411 -1410 1408 0
-1410 -1407 1412 0
-1412 -1408 1410 0
1413 1414 0
-1413 -1414 0
1415 1416 0
-1415 -1416 0
1417 1418 0
-1417 -1418 0
-1413 -1417 1415 0
-1415 -1418 1413 0
-1414 -1415 1417 0
-1417 -1416 1414 0
-1416 -1413 1418 0
-1418 -1414 1416 0
1419 1420 0
-1419 -1420 0
1421 1422 0
-1421 -1422 0
1423 1424 0
-1423 -1424 0
-1419 -1423 1421 0
-1421 -1424 1419 0
-1420 -1421 1423 0
-1423 -1422 1420 0
-1422 -1419 1424 0
-1424 -1420 1422 0
1425 1426 0
-1425 -1426 0
1427 1428 0
-1427 -1428 0
1429 1430 0
-1429 -1430 0
1431 1432 0
-1431 -1432 0
-1427 -1431 1429 0
-1429 -1432 1427 0
-1428 -1429 1431 0
-1431 -1430 1428 0
-1430 -1427 1432 0
-1432 -1428 1430 0
1433 1434 0
-1433 -1434 0
1435 1436 0
-1435 -1436 0
1437 1438 0
-1437 -1438 0
-1433 -1437 1435 0
-1435 -1438 1433 0
-1434 -1435 1437 0
-1437 -1436 1434 0
-1436 -1433 1438 0
-1438 -1434 1436 0
1439 1440 0
-1439 -1440 0
1441 1442 0
-1441 -1442 0
1443 1444 0
-1443 -1444 0
-1439 -1443 1441 0
-1441 -1444 1439 0
-1440 -1441 1443 0
-1443 -1442 1440 0
-1442 -1439 1444 0
-1444 -1440 1442 0
1445 1446 0
-1445 -1446 0
1447 1448 0
-1447 -1448 0
1449 1450 0
-1449 -1450 0
1451 1452 0
-1451 -1452 0
-1447 -1451 1449 0
-1449 -1452 1447 0
-1448 -1449 1451 0
-1451 -1450 1448 0
-1450 -1447 1452 0
-1452 -1448 1450 0
1453 1454 0
-1453 -1454 0
1455 1456 0
-1455 -1456 0
1457 1458 0
-1457 -1458 0
-1453 -1457 1455 0
-1455 -1458 1453 0
-1454 -1455 1457 0
-1457 -1456 1454 0
-1456 -1453 1458 0
-1458 -1454 1456 0
1459 1460 0
-1459 -1460 0
1461 1462 0
-1461 -1462 0
1463 1464 0
-1463 -1464 0
-1459 -1463 1461 0
-1461 -1464 1459 0
-1460 -1461 1463 0
-1463 -1462 1460 0
-1462 -1459 1464 0
-1464 -1460 1462 0
1465 1466 0
-1465 -1466 0
1467 1468 0
-1467 -1468 0
1469 1470 0
-1469 -1470 0
1471 1472 0
-1471 -1472 0
1473 1474 0
-1473 -1474 0
-1469 -1473 1471 0
-1471 -1474 1469 0
-1470 -1471 1473 0
-1473 -1472 1470 0
-1472 -1469 1474 0
-1474 -1470 1472 0
1475 1476 0
-1475 -1476 0
1477 1478 0
-1477 -1478 0
1479 1480 0
-1479 -1480 0
-1475 -1479 1477 0
-1477 -1480 1475 0
-1476 -1477 1479 0
-1479 -1478 1476 0
-1478 -1475 1480 0
-1480 -1476 1478 0
1481 1482 0
-1481 -1482 0
1483 1484 0
-1483 -1484 0
1485 1486 0
-1485 -1486 0
1487 1488 0
-1487 -1488 0
-1483 -1487 1485 0
-1485 -1488 1483 0
-1484 -1485 1487 0
-1487 -1486 1484 0
-1486 -1483 1488 0
-1488 -1484 1486 0
1489 1490 0
-1489 -1490 0
1491 1492 0
-1491 -1492 0
1493 1494 0
-1493 -1494 0
1495 1496 0
-1495 -1496 0
-1491 -1495 1493 0
-1493 -1496 1491 0
-1492 -1493 1495 0
-1495 -1494 1492 0
-1494 -1491 1496 0
-1496 -1492 1494 0
1497 1498 0
-1497 -1498 0
1499 1500 0
-1499 -1500 0
-4 -8 -6 -10 1501 1528 0
-3 -5 -7 -9 1501 1528 0
-197 -199 -205 -207 -211 -213 -220 -222 1511 1528 0
-198 -206 -212 -219 -200 -208 -214 -221 1511 1528 0
-2 -7 -6 -12 1501 1529 0
-1 -5 -8 -11 1501 1529 0
-2 -9 -4 -11 1501 1530 0
-1 -3 -10 -12 1501 1530 0
-62 -69 -64 -71 1506 1530 0
-61 -63 -70 -72 1506 1530 0
-79 -81 -87 -89 -93 -95 -97 -99 1507 1530 0
-80 -88 -94 -98 -82 -90 -96 -100 1507 1530 0
-16 -20 -18 -22 1502 1531 0
-15 -17 -19 -21 1502 1531 0
-227 -229 -235 -237 -241 -243 -250 -252 1531 0
-228 -236 -242 -249 -230 -238 -244 -251 1531 0
-14 -19 -18 -24 1502 1532 0
-13 -17 -20 -23 1502 1532 0
-14 -21 -16 -23 1502 1533 0
-13 -15 -22 -24 1502 1533 0
-75 -77 -83 -85 -94 -98 -96 -100 1507 1533 0
-76 -84 -93 -95 -78 -86 -97 -99 1507 1533 0
-109 -111 -117 -119 -123 -125 -127 -129 1508 1533 0
-110 -118 -124 -128 -112 -120 -126 -130 1508 1533 0
-28 -32 -30 -34 1503 1534 0
-27 -29 -31 -33 1503 1534 0
-257 -259 -265 -267 -271 -273 -280 -282 1534 0
-258 -266 -272 -279 -260 -268 -274 -281 1534 0
-26 -31 -30 -36 1503 1535 0
-25 -29 -32 -35 1503 1535 0
-26 -33 -28 -35 1503 1536 0
-25 -27 -34 -36 1503 1536 0
-105 -107 -113 -115 -124 -128 -126 -130 1508 1536 0
-106 -114 -123 -125 -108 -116 -127 -129 1508 1536 0
-139 -141 -147 -149 -153 -155 -157 -159 1509 1536 0
-140 -148 -154 -158 -142 -150 -156 -160 1509 1536 0
-40 -44 -42 -46 1504 1537 0
-39 -41 -43 -45 1504 1537 0
-287 -289 -295 -297 -301 -303 -310 -312 1537 0
-288 -296 -302 -309 -290 -298 -304 -311 1537 0
-38 -43 -42 -48 1504 1538 0
-37 -41 -44 -47 1504 1538 0
-38 -45 -40 -47 1504 1539 0
-37 -39 -46 -48 1504 1539 0
-135 -137 -143 -145 -154 -158 -156 -160 1509 1539 0
-136 -144 -153 -155 -138 -146 -157 -159 1509 1539 0
-169 -171 -177 -179 -183 -185 -187 -189 1510 1539 0
-170 -178 -184 -188 -172 -180 -186 -190 1510 1539 0
-52 -56 -54 -58 1505 1540 0
-51 -53 -55 -57 1505 1540 0
-314 -321 -316 -323 1512 1540 0
-313 -315 -322 -324 1512 1540 0
-417 -419 -425 -427 -436 -440 -438 -442 1513 1540 0
-418 -426 -435 -437 -420 -428 -439 -441 1513 1540 0
-50 -55 -54 -60 1505 1541 0
-49 -53 -56 -59 1505 1541 0
-50 -57 -52 -59 1505 1542 0
-49 -51 -58 -60 1505 1542 0
-165 -167 -173 -175 -184 -188 -186 -190 1510 1542 0
-166 -174 -183 -185 -168 -176 -187 -189 1510 1542 0
-64 -68 -66 -70 1506 1543 0
-63 -65 -67 -69 1506 1543 0
-199 -201 -207 -209 -213 -215 -217 -219 1511 1543 0
-200 -208 -214 -218 -202 -210 -216 -220 1511 1543 0
-62 -67 -66 -72 1506 1544 0
-61 -65 -68 -71 1506 1544 0
-76 -84 -78 -86 -80 -88 -82 -90 1507 1545 0
-75 -77 -79 -81 -83 -85 -87 -89 1507 1545 0
-329 -331 -337 -339 -343 -345 -352 -354 1545 0
-330 -338 -344 -351 -332 -340 -346 -353 1545 0
-74 -83 -78 -92 -80 -94 -82 -96 1507 1546 0
-73 -77 -79 -81 -84 -91 -93 -95 1507 1546 0
-74 -85 -76 -91 -80 -98 -82 -100 1507 1547 0
-73 -75 -79 -81 -86 -92 -97 -99 1507 1547 0
-74 -87 -76 -93 -78 -97 -82 -102 1507 1548 0
-73 -75 -77 -81 -88 -94 -98 -101 1507 1548 0
-74 -89 -76 -95 -78 -99 -80 -101 1507 1549 0
-73 -75 -77 -79 -90 -96 -100 -102 1507 1549 0
-195 -197 -203 -205 -214 -218 -216 -220 1511 1549 0
-196 -204 -213 -215 -198 -206 -217 -219 1511 1549 0
-73 -75 -86 -92 -88 -94 -90 -96 1507 1550 0
-74 -85 -87 -89 -76 -91 -93 -95 1507 1550 0
-229 -231 -237 -239 -243 -245 -247 -249 1550 0
-230 -238 -244 -248 -232 -240 -246 -250 1550 0
-73 -77 -84 -91 -88 -98 -90 -100 1507 1551 0
-74 -83 -87 -89 -78 -92 -97 -99 1507 1551 0
-73 -79 -84 -93 -86 -97 -90 -102 1507 1552 0
-74 -83 -85 -89 -80 -94 -98 -101 1507 1552 0
-73 -81 -84 -95 -86 -99 -88 -101 1507 1553 0
-74 -83 -85 -87 -82 -96 -100 -102 1507 1553 0
-75 -79 -83 -87 -92 -97 -96 -102 1507 1554 0
-76 -84 -91 -95 -80 -88 -98 -101 1507 1554 0
-75 -81 -83 -89 -92 -99 -94 -101 1507 1555 0
-76 -84 -91 -93 -82 -90 -100 -102 1507 1555 0
-77 -79 -85 -87 -91 -93 -100 -102 1507 1556 0
-78 -86 -92 -99 -80 -88 -94 -101 1507 1556 0
-77 -81 -85 -89 -91 -95 -98 -101 1507 1557 0
-78 -86 -92 -97 -82 -90 -96 -102 1507 1557 0
-78 -86 -92 -80 -88 -94 -82 -90 -96 1507 1558 0
-77 -79 -81 -85 -87 -89 -91 -93 -95 1507 1558 0
-76 -84 -91 -80 -88 -98 -82 -90 -100 1507 1559 0
-75 -79 -81 -83 -87 -89 -92 -97 -99 1507 1559 0
-76 -84 -93 -78 -86 -97 -82 -90 -102 1507 1560 0
-75 -77 -81 -83 -85 -89 -94 -98 -101 1507 1560 0
-76 -84 -95 -78 -86 -99 -80 -88 -101 1507 1561 0
-75 -77 -79 -83 -85 -87 -96 -100 -102 1507 1561 0
-74 -83 -85 -80 -94 -98 -82 -96 -100 1507 1562 0
-73 -79 -81 -84 -93 -95 -86 -97 -99 1507 1562 0
-74 -83 -87 -78 -92 -97 -82 -96 -102 1507 1563 0
-73 -77 -81 -84 -91 -95 -88 -98 -101 1507 1563 0
-74 -83 -89 -78 -92 -99 -80 -94 -101 1507 1564 0
-73 -77 -79 -84 -91 -93 -90 -100 -102 1507 1564 0
-74 -85 -87 -76 -91 -93 -82 -100 -102 1507 1565 0
-73 -75 -81 -86 -92 -99 -88 -94 -101 1507 1565 0
-74 -85 -89 -76 -91 -95 -80 -98 -101 1507 1566 0
-73 -75 -79 -86 -92 -97 -90 -96 -102 1507 1566 0
-74 -87 -89 -76 -93 -95 -78 -97 -99 1507 1567 0
-73 -75 -77 -88 -94 -98 -90 -96 -100 1507 1567 0
-106 -114 -108 -116 -110 -118 -112 -120 1508 1568 0
-105 -107 -109 -111 -113 -115 -117 -119 1508 1568 0
-359 -361 -367 -369 -373 -375 -382 -384 1568 0
-360 -368 -374 -381 -362 -370 -376 -383 1568 0
-104 -113 -108 -122 -110 -124 -112 -126 1508 1569 0
-103 -107 -109 -111 -114 -121 -123 -125 1508 1569 0
-104 -115 -106 -121 -110 -128 -112 -130 1508 1570 0
-103 -105 -109 -111 -116 -122 -127 -129 1508 1570 0
-104 -117 -106 -123 -108 -127 -112 -132 1508 1571 0
-103 -105 -107 -111 -118 -124 -128 -131 1508 1571 0
-104 -119 -106 -125 -108 -129 -110 -131 1508 1572 0
-103 -105 -107 -109 -120 -126 -130 -132 1508 1572 0
-225 -227 -233 -235 -244 -248 -246 -250 1572 0
-226 -234 -243 -245 -228 -236 -247 -249 1572 0
-103 -105 -116 -122 -118 -124 -120 -126 1508 1573 0
-104 -115 -117 -119 -106 -121 -123 -125 1508 1573 0
-259 -261 -267 -269 -273 -275 -277 -279 1573 0
-260 -268 -274 -278 -262 -270 -276 -280 1573 0
-103 -107 -114 -121 -118 -128 -120 -130 1508 1574 0
-104 -113 -117 -119 -108 -122 -127 -129 1508 1574 0
-103 -109 -114 -123 -116 -127 -120 -132 1508 1575 0
-104 -113 -115 -119 -110 -124 -128 -131 1508 1575 0
-103 -111 -114 -125 -116 -129 -118 -131 1508 1576 0
-104 -113 -115 -117 -112 -126 -130 -132 1508 1576 0
-105 -109 -113 -117 -122 -127 -126 -132 1508 1577 0
-106 -114 -121 -125 -110 -118 -128 -131 1508 1577 0
-105 -111 -113 -119 -122 -129 -124 -131 1508 1578 0
-106 -114 -121 -123 -112 -120 -130 -132 1508 1578 0
-107 -109 -115 -117 -121 -123 -130 -132 1508 1579 0
-108 -116 -122 -129 -110 -118 -124 -131 1508 1579 0
-107 -111 -115 -119 -121 -125 -128 -131 1508 1580 0
-108 -116 -122 -127 -112 -120 -126 -132 1508 1580 0
-108 -116 -122 -110 -118 -124 -112 -120 -126 1508 1581 0
-107 -109 -111 -115 -117 -119 -121 -123 -125 1508 1581 0
-106 -114 -121 -110 -118 -128 -112 -120 -130 1508 1582 0
-105 -109 -111 -113 -117 -119 -122 -127 -129 1508 1582 0
-106 -114 -123 -108 -116 -127 -112 -120 -132 1508 1583 0
-105 -107 -111 -113 -115 -119 -124 -128 -131 1508 1583 0
-106 -114 -125 -108 -116 -129 -110 -118 -131 1508 1584 0
-105 -107 -109 -113 -115 -117 -126 -130 -132 1508 1584 0
-104 -113 -115 -110 -124 -128 -112 -126 -130 1508 1585 0
-103 -109 -111 -114 -123 -125 -116 -127 -129 1508 1585 0
-104 -113 -117 -108 -122 -127 -112 -126 -132 1508 1586 0
-103 -107 -111 -114 -121 -125 -118 -128 -131 1508 1586 0
-104 -113 -119 -108 -122 -129 -110 -124 -131 1508 1587 0
-103 -107 -109 -114 -121 -123 -120 -130 -132 1508 1587 0
-104 -115 -117 -106 -121 -123 -112 -130 -132 1508 1588 0
-103 -105 -111 -116 -122 -129 -118 -124 -131 1508 1588 0
-104 -115 -119 -106 -121 -125 -110 -128 -131 1508 1589 0
-103 -105 -109 -116 -122 -127 -120 -126 -132 1508 1589 0
-104 -117 -119 -106 -123 -125 -108 -127 -129 1508 1590 0
-103 -105 -107 -118 -124 -128 -120 -126 -130 1508 1590 0
-136 -144 -138 -146 -140 -148 -142 -150 1509 1591 0
-135 -137 -139 -141 -143 -145 -147 -149 1509 1591 0
-389 -391 -397 -399 -403 -405 -412 -414 1591 0
-390 -398 -404 -411 -392 -400 -406 -413 1591 0
-134 -143 -138 -152 -140 -154 -142 -156 1509 1592 0
-133 -137 -139 -141 -144 -151 -153 -155 1509 1592 0
-134 -145 -136 -151 -140 -158 -142 -160 1509 1593 0
-133 -135 -139 -141 -146 -152 -157 -159 1509 1593 0
-134 -147 -136 -153 -138 -157 -142 -162 1509 1594 0
-133 -135 -137 -141 -148 -154 -158 -161 1509 1594 0
-134 -149 -136 -155 -138 -159 -140 -161 1509 1595 0
-133 -135 -137 -139 -150 -156 -160 -162 1509 1595 0
-255 -257 -263 -265 -274 -278 -276 -280 1595 0
-256 -264 -273 -275 -258 -266 -277 -279 1595 0
-133 -135 -146 -152 -148 -154 -150 -156 1509 1596 0
-134 -145 -147 -149 -136 -151 -153 -155 1509 1596 0
-289 -291 -297 -299 -303 -305 -307 -309 1596 0
-290 -298 -304 -308 -292 -300 -306 -310 1596 0
-133 -137 -144 -151 -148 -158 -150 -160 1509 1597 0
-134 -143 -147 -149 -138 -152 -157 -159 1509 1597 0
-133 -139 -144 -153 -146 -157 -150 -162 1509 1598 0
-134 -143 -145 -149 -140 -154 -158 -161 1509 1598 0
-133 -141 -144 -155 -146 -159 -148 -161 1509 1599 0
-134 -143 -145 -147 -142 -156 -160 -162 1509 1599 0
-135 -139 -143 -147 -152 -157 -156 -162 1509 1600 0
-136 -144 -151 -155 -140 -148 -158 -161 1509 1600 0
-135 -141 -143 -149 -152 -159 -154 -161 1509 1601 0
-136 -144 -151 -153 -142 -150 -160 -162 1509 1601 0
-137 -139 -145 -147 -151 -153 -160 -162 1509 1602 0
-138 -146 -152 -159 -140 -148 -154 -161 1509 1602 0
-137 -141 -145 -149 -151 -155 -158 -161 1509 1603 0
-138 -146 -152 -157 -142 -150 -156 -162 1509 1603 0
-138 -146 -152 -140 -148 -154 -142 -150 -156 1509 1604 0
-137 -139 -141 -145 -147 -149 -151 -153 -155 1509 1604 0
-136 -144 -151 -140 -148 -158 -142 -150 -160 1509 1605 0
-135 -139 -141 -143 -147 -149 -152 -157 -159 1509 1605 0
-136 -144 -153 -138 -146 -157 -142 -150 -162 1509 1606 0
-135 -137 -141 -143 -145 -149 -154 -158 -161 1509 1606 0
-136 -144 -155 -138 -146 -159 -140 -148 -161 1509 1607 0
-135 -137 -139 -143 -145 -147 -156 -160 -162 1509 1607 0
-134 -143 -145 -140 -154 -158 -142 -156 -160 1509 1608 0
-133 -139 -141 -144 -153 -155 -146 -157 -159 1509 1608 0
-134 -143 -147 -138 -152 -157 -142 -156 -162 1509 1609 0
-133 -137 -141 -144 -151 -155 -148 -158 -161 1509 1609 0
-134 -143 -149 -138 -152 -159 -140 -154 -161 1509 1610 0
-133 -137 -139 -144 -151 -153 -150 -160 -162 1509 1610 0
-134 -145 -147 -136 -151 -153 -142 -160 -162 1509 1611 0
-133 -135 -141 -146 -152 -159 -148 -154 -161 1509 1611 0
-134 -145 -149 -136 -151 -155 -140 -158 -161 1509 1612 0
-133 -135 -139 -146 -152 -157 -150 -156 -162 1509 1612 0
-134 -147 -149 -136 -153 -155 -138 -157 -159 1509 1613 0
-133 -135 -137 -148 -154 -158 -150 -156 -160 1509 1613 0
-166 -174 -168 -176 -170 -178 -172 -180 1510 1614 0
-165 -167 -169 -171 -173 -175 -177 -179 1510 1614 0
-419 -421 -427 -429 -433 -435 -442 -444 1513 1614 0
-420 -428 -434 -441 -422 -430 -436 -443 1513 1614 0
-164 -173 -168 -182 -170 -184 -172 -186 1510 1615 0
-163 -167 -169 -171 -174 -181 -183 -185 1510 1615 0
-164 -175 -166 -181 -170 -188 -172 -190 1510 1616 0
-163 -165 -169 -171 -176 -182 -187 -189 1510 1616 0
-164 -177 -166 -183 -168 -187 -172 -192 1510 1617 0
-163 -165 -167 -171 -178 -184 -188 -191 1510 1617 0
-164 -179 -166 -185 -168 -189 -170 -191 1510 1618 0
-163 -165 -167 -169 -180 -186 -190 -192 1510 1618 0
-285 -287 -293 -295 -304 -308 -306 -310 1618 0
-286 -294 -303 -305 -288 -296 -307 -309 1618 0
-163 -165 -176 -182 -178 -184 -180 -186 1510 1619 0
-164 -175 -177 -179 -166 -181 -183 -185 1510 1619 0
-316 -320 -318 -322 1512 1619 0
-315 -317 -319 -321 1512 1619 0
-163 -167 -174 -181 -178 -188 -180 -190 1510 1620 0
-164 -173 -177 -179 -168 -182 -187 -189 1510 1620 0
-163 -169 -174 -183 -176 -187 -180 -192 1510 1621 0
-164 -173 -175 -179 -170 -184 -188 -191 1510 1621 0
-163 -171 -174 -185 -176 -189 -178 -191 1510 1622 0
-164 -173 -175 -177 -172 -186 -190 -192 1510 1622 0
-165 -169 -173 -177 -182 -187 -186 -192 1510 1623 0
-166 -174 -181 -185 -170 -178 -188 -191 1510 1623 0
-165 -171 -173 -179 -182 -189 -184 -191 1510 1624 0
-166 -174 -181 -183 -172 -180 -190 -192 1510 1624 0
-167 -169 -175 -177 -181 -183 -190 -192 1510 1625 0
-168 -176 -182 -189 -170 -178 -184 -191 1510 1625 0
-167 -171 -175 -179 -181 -185 -188 -191 1510 1626 0
-168 -176 -182 -187 -172 -180 -186 -192 1510 1626 0
-168 -176 -182 -170 -178 -184 -172 -180 -186 1510 1627 0
-167 -169 -171 -175 -177 -179 -181 -183 -185 1510 1627 0
-166 -174 -181 -170 -178 -188 -172 -180 -190 1510 1628 0
-165 -169 -171 -173 -177 -179 -182 -187 -189 1510 1628 0
-166 -174 -183 -168 -176 -187 -172 -180 -192 1510 1629 0
-165 -167 -171 -173 -175 -179 -184 -188 -191 1510 1629 0
-166 -174 -185 -168 -176 -189 -170 -178 -191 1510 1630 0
-165 -167 -169 -173 -175 -177 -186 -190 -192 1510 1630 0
-164 -173 -175 -170 -184 -188 -172 -186 -190 1510 1631 0
-163 -169 -171 -174 -183 -185 -176 -187 -189 1510 1631 0
-164 -173 -177 -168 -182 -187 -172 -186 -192 1510 1632 0
-163 -167 -171 -174 -181 -185 -178 -188 -191 1510 1632 0
-164 -173 -179 -168 -182 -189 -170 -184 -191 1510 1633 0
-163 -167 -169 -174 -181 -183 -180 -190 -192 1510 1633 0
-164 -175 -177 -166 -181 -183 -172 -190 -192 1510 1634 0
-163 -165 -171 -176 -182 -189 -178 -184 -191 1510 1634 0
-164 -175 -179 -166 -181 -185 -170 -188 -191 1510 1635 0
-163 -165 -169 -176 -182 -187 -180 -186 -192 1510 1635 0
-164 -177 -179 -166 -183 -185 -168 -187 -189 1510 1636 0
-163 -165 -167 -178 -184 -188 -180 -186 -190 1510 1636 0
-196 -204 -198 -206 -200 -208 -202 -210 1511 1637 0
-195 -197 -199 -201 -203 -205 -207 -209 1511 1637 0
-448 -452 -450 -454 1514 1637 0
-447 -449 -451 -453 1514 1637 0
-553 -555 -561 -563 -567 -569 -571 -573 1515 1637 0
-554 -562 -568 -572 -556 -564 -570 -574 1515 1637 0
-194 -203 -198 -212 -200 -214 -202 -216 1511 1638 0
-193 -197 -199 -201 -204 -211 -213 -215 1511 1638 0
-194 -205 -196 -211 -200 -218 -202 -220 1511 1639 0
-193 -195 -199 -201 -206 -212 -217 -219 1511 1639 0
-194 -207 -196 -213 -198 -217 -202 -222 1511 1640 0
-193 -195 -197 -201 -208 -214 -218 -221 1511 1640 0
-194 -209 -196 -215 -198 -219 -200 -221 1511 1641 0
-193 -195 -197 -199 -210 -216 -220 -222 1511 1641 0
-193 -195 -206 -212 -208 -214 -210 -216 1511 1642 0
-194 -205 -207 -209 -196 -211 -213 -215 1511 1642 0
-331 -333 -339 -341 -345 -347 -349 -351 1642 0
-332 -340 -346 -350 -334 -342 -348 -352 1642 0
-193 -197 -204 -211 -208 -218 -210 -220 1511 1643 0
-194 -203 -207 -209 -198 -212 -217 -219 1511 1643 0
-193 -199 -204 -213 -206 -217 -210 -222 1511 1644 0
-194 -203 -205 -209 -200 -214 -218 -221 1511 1644 0
-193 -201 -204 -215 -206 -219 -208 -221 1511 1645 0
-194 -203 -205 -207 -202 -216 -220 -222 1511 1645 0
-195 -199 -203 -207 -212 -217 -216 -222 1511 1646 0
-196 -204 -211 -215 -200 -208 -218 -221 1511 1646 0
-195 -201 -203 -209 -212 -219 -214 -221 1511 1647 0
-196 -204 -211 -213 -202 -210 -220 -222 1511 1647 0
-197 -201 -205 -209 -211 -215 -218 -221 1511 1648 0
-198 -206 -212 -217 -202 -210 -216 -222 1511 1648 0
-198 -206 -212 -200 -208 -214 -202 -210 -216 1511 1649 0
-197 -199 -201 -205 -207 -209 -211 -213 -215 1511 1649 0
-196 -204 -211 -200 -208 -218 -202 -210 -220 1511 1650 0
-195 -199 -201 -203 -207 -209 -212 -217 -219 1511 1650 0
-196 -204 -213 -198 -206 -217 -202 -210 -222 1511 1651 0
-195 -197 -201 -203 -205 -209 -214 -218 -221 1511 1651 0
-196 -204 -215 -198 -206 -219 -200 -208 -221 1511 1652 0
-195 -197 -199 -203 -205 -207 -216 -220 -222 1511 1652 0
-194 -203 -205 -200 -214 -218 -202 -216 -220 1511 1653 0
-193 -199 -201 -204 -213 -215 -206 -217 -219 1511 1653 0
-194 -203 -207 -198 -212 -217 -202 -216 -222 1511 1654 0
-193 -197 -201 -204 -211 -215 -208 -218 -221 1511 1654 0
-194 -203 -209 -198 -212 -219 -200 -214 -221 1511 1655 0
-193 -197 -199 -204 -211 -213 -210 -220 -222 1511 1655 0
-194 -205 -207 -196 -211 -213 -202 -220 -222 1511 1656 0
-193 -195 -201 -206 -212 -219 -208 -214 -221 1511 1656 0
-194 -205 -209 -196 -211 -215 -200 -218 -221 1511 1657 0
-193 -195 -199 -206 -212 -217 -210 -216 -222 1511 1657 0
-194 -207 -209 -196 -213 -215 -198 -217 -219 1511 1658 0
-193 -195 -197 -208 -214 -218 -210 -216 -220 1511 1658 0
-226 -234 -228 -236 -230 -238 -232 -240 1659 0
-225 -227 -229 -231 -233 -235 -237 -239 1659 0
-461 -463 -469 -471 -475 -477 -484 -486 1659 0
-462 -470 -476 -483 -464 -472 -478 -485 1659 0
-224 -233 -228 -242 -230 -244 -232 -246 1660 0
-223 -227 -229 -231 -234 -241 -243 -245 1660 0
-224 -235 -226 -241 -230 -248 -232 -250 1661 0
-223 -225 -229 -231 -236 -242 -247 -249 1661 0
-224 -237 -226 -243 -228 -247 -232 -252 1662 0
-223 -225 -227 -231 -238 -244 -248 -251 1662 0
-224 -239 -226 -245 -228 -249 -230 -251 1663 0
-223 -225 -227 -229 -240 -246 -250 -252 1663 0
-327 -329 -335 -337 -346 -350 -348 -352 1663 0
-328 -336 -345 -347 -330 -338 -349 -351 1663 0
-223 -225 -236 -242 -238 -244 -240 -246 1664 0
-224 -235 -237 -239 -226 -241 -243 -245 1664 0
-361 -363 -369 -371 -375 -377 -379 -381 1664 0
-362 -370 -376 -380 -364 -372 -378 -382 1664 0
-223 -227 -234 -241 -238 -248 -240 -250 1665 0
-224 -233 -237 -239 -228 -242 -247 -249 1665 0
-223 -229 -234 -243 -236 -247 -240 -252 1666 0
-224 -233 -235 -239 -230 -244 -248 -251 1666 0
-223 -231 -234 -245 -236 -249 -238 -251 1667 0
-224 -233 -235 -237 -232 -246 -250 -252 1667 0
-225 -229 -233 -237 -242 -247 -246 -252 1668 0
-226 -234 -241 -245 -230 -238 -248 -251 1668 0
-225 -231 -233 -239 -242 -249 -244 -251 1669 0
-226 -234 -241 -243 -232 -240 -250 -252 1669 0
-227 -231 -235 -239 -241 -245 -248 -251 1670 0
-228 -236 -242 -247 -232 -240 -246 -252 1670 0
-228 -236 -242 -230 -238 -244 -232 -240 -246 1671 0
-227 -229 -231 -235 -237 -239 -241 -243 -245 1671 0
-226 -234 -241 -230 -238 -248 -232 -240 -250 1672 0
-225 -229 -231 -233 -237 -239 -242 -247 -249 1672 0
-226 -234 -243 -228 -236 -247 -232 -240 -252 1673 0
-225 -227 -231 -233 -235 -239 -244 -248 -251 1673 0
-226 -234 -245 -228 -236 -249 -230 -238 -251 1674 0
-225 -227 -229 -233 -235 -237 -246 -250 -252 1674 0
-224 -233 -235 -230 -244 -248 -232 -246 -250 1675 0
-223 -229 -231 -234 -243 -245 -236 -247 -249 1675 0
-224 -233 -237 -228 -242 -247 -232 -246 -252 1676 0
-223 -227 -231 -234 -241 -245 -238 -248 -251 1676 0
-224 -233 -239 -228 -242 -249 -230 -244 -251 1677 0
-223 -227 -229 -234 -241 -243 -240 -250 -252 1677 0
-224 -235 -237 -226 -241 -243 -232 -250 -252 1678 0
-223 -225 -231 -236 -242 -249 -238 -244 -251 1678 0
-224 -235 -239 -226 -241 -245 -230 -248 -251 1679 0
-223 -225 -229 -236 -242 -247 -240 -246 -252 1679 0
-224 -237 -239 -226 -243 -245 -228 -247 -249 1680 0
-223 -225 -227 -238 -244 -248 -240 -246 -250 1680 0
-256 -264 -258 -266 -260 -268 -262 -270 1681 0
-255 -257 -259 -261 -263 -265 -267 -269 1681 0
-491 -493 -499 -501 -505 -507 -514 -516 1681 0
-492 -500 -506 -513 -494 -502 -508 -515 1681 0
-254 -263 -258 -272 -260 -274 -262 -276 1682 0
-253 -257 -259 -261 -264 -271 -273 -275 1682 0
-254 -265 -256 -271 -260 -278 -262 -280 1683 0
-253 -255 -259 -261 -266 -272 -277 -279 1683 0
-254 -267 -256 -273 -258 -277 -262 -282 1684 0
-253 -255 -257 -261 -268 -274 -278 -281 1684 0
-254 -269 -256 -275 -258 -279 -260 -281 1685 0
-253 -255 -257 -259 -270 -276 -280 -282 1685 0
-357 -359 -365 -367 -376 -380 -378 -382 1685 0
-358 -366 -375 -377 -360 -368 -379 -381 1685 0
-253 -255 -266 -272 -268 -274 -270 -276 1686 0
-254 -265 -267 -269 -256 -271 -273 -275 1686 0
-391 -393 -399 -401 -405 -407 -409 -411 1686 0
-392 -400 -406 -410 -394 -402 -408 -412 1686 0
-253 -257 -264 -271 -268 -278 -270 -280 1687 0
-254 -263 -267 -269 -258 -272 -277 -279 1687 0
-253 -259 -264 -273 -266 -277 -270 -282 1688 0
-254 -263 -265 -269 -260 -274 -278 -281 1688 0
-253 -261 -264 -275 -266 -279 -268 -281 1689 0
-254 -263 -265 -267 -262 -276 -280 -282 1689 0
-255 -259 -263 -267 -272 -277 -276 -282 1690 0
-256 -264 -271 -275 -260 -268 -278 -281 1690 0
-255 -261 -263 -269 -272 -279 -274 -281 1691 0
-256 -264 -271 -273 -262 -270 -280 -282 1691 0
-257 -261 -265 -269 -271 -275 -278 -281 1692 0
-258 -266 -272 -277 -262 -270 -276 -282 1692 0
-258 -266 -272 -260 -268 -274 -262 -270 -276 1693 0
-257 -259 -261 -265 -267 -269 -271 -273 -275 1693 0
-256 -264 -271 -260 -268 -278 -262 -270 -280 1694 0
-255 -259 -261 -263 -267 -269 -272 -277 -279 1694 0
-256 -264 -273 -258 -266 -277 -262 -270 -282 1695 0
-255 -257 -261 -263 -265 -269 -274 -278 -281 1695 0
-256 -264 -275 -258 -266 -279 -260 -268 -281 1696 0
-255 -257 -259 -263 -265 -267 -276 -280 -282 1696 0
-254 -263 -265 -260 -274 -278 -262 -276 -280 1697 0
-253 -259 -261 -264 -273 -275 -266 -277 -279 1697 0
-254 -263 -267 -258 -272 -277 -262 -276 -282 1698 0
-253 -257 -261 -264 -271 -275 -268 -278 -281 1698 0
-254 -263 -269 -258 -272 -279 -260 -274 -281 1699 0
-253 -257 -259 -264 -271 -273 -270 -280 -282 1699 0
-254 -265 -267 -256 -271 -273 -262 -280 -282 1700 0
-253 -255 -261 -266 -272 -279 -268 -274 -281 1700 0
-254 -265 -269 -256 -271 -275 -260 -278 -281 1701 0
-253 -255 -259 -266 -272 -277 -270 -276 -282 1701 0
-254 -267 -269 -256 -273 -275 -258 -277 -279 1702 0
-253 -255 -257 -268 -274 -278 -270 -276 -280 1702 0
-286 -294 -288 -296 -290 -298 -292 -300 1703 0
-285 -287 -289 -291 -293 -295 -297 -299 1703 0
-521 -523 -529 -531 -535 -537 -544 -546 1703 0
-522 -530 -536 -543 -524 -532 -538 -545 1703 0
-284 -293 -288 -302 -290 -304 -292 -306 1704 0
-283 -287 -289 -291 -294 -301 -303 -305 1704 0
-284 -295 -286 -301 -290 -308 -292 -310 1705 0
-283 -285 -289 -291 -296 -302 -307 -309 1705 0
-284 -297 -286 -303 -288 -307 -292 -312 1706 0
-283 -285 -287 -291 -298 -304 -308 -311 1706 0
-284 -299 -286 -305 -288 -309 -290 -311 1707 0
-283 -285 -287 -289 -300 -306 -310 -312 1707 0
-387 -389 -395 -397 -406 -410 -408 -412 1707 0
-388 -396 -405 -407 -390 -398 -409 -411 1707 0
-283 -285 -296 -302 -298 -304 -300 -306 1708 0
-284 -295 -297 -299 -286 -301 -303 -305 1708 0
-421 -423 -429 -431 -435 -437 -439 -441 1513 1708 0
-422 -430 -436 -440 -424 -432 -438 -442 1513 1708 0
-283 -287 -294 -301 -298 -308 -300 -310 1709 0
-284 -293 -297 -299 -288 -302 -307 -309 1709 0
-283 -289 -294 -303 -296 -307 -300 -312 1710 0
-284 -293 -295 -299 -290 -304 -308 -311 1710 0
-283 -291 -294 -305 -296 -309 -298 -311 1711 0
-284 -293 -295 -297 -292 -306 -310 -312 1711 0
-285 -289 -293 -297 -302 -307 -306 -312 1712 0
-286 -294 -301 -305 -290 -298 -308 -311 1712 0
-285 -291 -293 -299 -302 -309 -304 -311 1713 0
-286 -294 -301 -303 -292 -300 -310 -312 1713 0
-287 -291 -295 -299 -301 -305 -308 -311 1714 0
-288 -296 -302 -307 -292 -300 -306 -312 1714 0
-288 -296 -302 -290 -298 -304 -292 -300 -306 1715 0
-287 -289 -291 -295 -297 -299 -301 -303 -305 1715 0
-286 -294 -301 -290 -298 -308 -292 -300 -310 1716 0
-285 -289 -291 -293 -297 -299 -302 -307 -309 1716 0
-286 -294 -303 -288 -296 -307 -292 -300 -312 1717 0
-285 -287 -291 -293 -295 -299 -304 -308 -311 1717 0
-286 -294 -305 -288 -296 -309 -290 -298 -311 1718 0
-285 -287 -289 -293 -295 -297 -306 -310 -312 1718 0
-284 -293 -295 -290 -304 -308 -292 -306 -310 1719 0
-283 -289 -291 -294 -303 -305 -296 -307 -309 1719 0
-284 -293 -297 -288 -302 -307 -292 -306 -312 1720 0
-283 -287 -291 -294 -301 -305 -298 -308 -311 1720 0
-284 -293 -299 -288 -302 -309 -290 -304 -311 1721 0
-283 -287 -289 -294 -301 -303 -300 -310 -312 1721 0
-284 -295 -297 -286 -301 -303 -292 -310 -312 1722 0
-283 -285 -291 -296 -302 -309 -298 -304 -311 1722 0
-284 -295 -299 -286 -301 -305 -290 -308 -311 1723 0
-283 -285 -289 -296 -302 -307 -300 -306 -312 1723 0
-284 -297 -299 -286 -303 -305 -288 -307 -309 1724 0
-283 -285 -287 -298 -304 -308 -300 -306 -310 1724 0
-314 -319 -318 -324 1512 1725 0
-313 -317 -320 -323 1512 1725 0
-328 -336 -330 -338 -332 -340 -334 -342 1726 0
-327 -329 -331 -333 -335 -337 -339 -341 1726 0
-551 -553 -559 -561 -565 -567 -574 -576 1515 1726 0
-552 -560 -566 -573 -554 -562 -568 -575 1515 1726 0
-326 -335 -330 -344 -332 -346 -334 -348 1727 0
-325 -329 -331 -333 -336 -343 -345 -347 1727 0
-326 -337 -328 -343 -332 -350 -334 -352 1728 0
-325 -327 -331 -333 -338 -344 -349 -351 1728 0
-326 -339 -328 -345 -330 -349 -334 -354 1729 0
-325 -327 -329 -333 -340 -346 -350 -353 1729 0
-326 -341 -328 -347 -330 -351 -332 -353 1730 0
-325 -327 -329 -331 -342 -348 -352 -354 1730 0
-446 -453 -448 -455 1514 1730 0
-445 -447 -454 -456 1514 1730 0
-325 -327 -338 -344 -340 -346 -342 -348 1731 0
-326 -337 -339 -341 -328 -343 -345 -347 1731 0
-463 -465 -471 -473 -477 -479 -481 -483 1731 0
-464 -472 -478 -482 -466 -474 -480 -484 1731 0
-325 -329 -336 -343 -340 -350 -342 -352 1732 0
-326 -335 -339 -341 -330 -344 -349 -351 1732 0
-325 -331 -336 -345 -338 -349 -342 -354 1733 0
-326 -335 -337 -341 -332 -346 -350 -353 1733 0
-325 -333 -336 -347 -338 -351 -340 -353 1734 0
-326 -335 -337 -339 -334 -348 -352 -354 1734 0
-327 -331 -335 -339 -344 -349 -348 -354 1735 0
-328 -336 -343 -347 -332 -340 -350 -353 1735 0
-327 -333 -335 -341 -344 -351 -346 -353 1736 0
-328 -336 -343 -345 -334 -342 -352 -354 1736 0
-329 -333 -337 -341 -343 -347 -350 -353 1737 0
-330 -338 -344 -349 -334 -342 -348 -354 1737 0
-330 -338 -344 -332 -340 -346 -334 -342 -348 1738 0
-329 -331 -333 -337 -339 -341 -343 -345 -347 1738 0
-328 -336 -343 -332 -340 -350 -334 -342 -352 1739 0
-327 -331 -333 -335 -339 -341 -344 -349 -351 1739 0
-328 -336 -345 -330 -338 -349 -334 -342 -354 1740 0
-327 -329 -333 -335 -337 -341 -346 -350 -353 1740 0
-328 -336 -347 -330 -338 -351 -332 -340 -353 1741 0
-327 -329 -331 -335 -337 -339 -348 -352 -354 1741 0
-326 -335 -337 -332 -346 -350 -334 -348 -352 1742 0
-325 -331 -333 -336 -345 -347 -338 -349 -351 1742 0
-326 -335 -339 -330 -344 -349 -334 -348 -354 1743 0
-325 -329 -333 -336 -343 -347 -340 -350 -353 1743 0
-326 -335 -341 -330 -344 -351 -332 -346 -353 1744 0
-325 -329 -331 -336 -343 -345 -342 -352 -354 1744 0
-326 -337 -339 -328 -343 -345 -334 -352 -354 1745 0
-325 -327 -333 -338 -344 -351 -340 -346 -353 1745 0
-326 -337 -341 -328 -343 -347 -332 -350 -353 1746 0
-325 -327 -331 -338 -344 -349 -342 -348 -354 1746 0
-326 -339 -341 -328 -345 -347 -330 -349 -351 1747 0
-325 -327 -329 -340 -346 -350 -342 -348 -352 1747 0
-358 -366 -360 -368 -362 -370 -364 -372 1748 0
-357 -359 -361 -363 -365 -367 -369 -371 1748 0
-581 -583 -589 -591 -595 -597 -604 -606 1748 0
-582 -590 -596 -603 -584 -592 -598 -605 1748 0
-356 -365 -360 -374 -362 -376 -364 -378 1749 0
-355 -359 -361 -363 -366 -373 -375 -377 1749 0
-356 -367 -358 -373 -362 -380 -364 -382 1750 0
-355 -357 -361 -363 -368 -374 -379 -381 1750 0
-356 -369 -358 -375 -360 -379 -364 -384 1751 0
-355 -357 -359 -363 -370 -376 -380 -383 1751 0
-356 -371 -358 -377 -360 -381 -362 -383 1752 0
-355 -357 -359 -361 -372 -378 -382 -384 1752 0
-459 -461 -467 -469 -478 -482 -480 -484 1752 0
-460 -468 -477 -479 -462 -470 -481 -483 1752 0
-355 -357 -368 -374 -370 -376 -372 -378 1753 0
-356 -367 -369 -371 -358 -373 -375 -377 1753 0
-493 -495 -501 -503 -507 -509 -511 -513 1753 0
-494 -502 -508 -512 -496 -504 -510 -514 1753 0
-355 -359 -366 -373 -370 -380 -372 -382 1754 0
-356 -365 -369 -371 -360 -374 -379 -381 1754 0
-355 -361 -366 -375 -368 -379 -372 -384 1755 0
-356 -365 -367 -371 -362 -376 -380 -383 1755 0
-355 -363 -366 -377 -368 -381 -370 -383 1756 0
-356 -365 -367 -369 -364 -378 -382 -384 1756 0
-357 -361 -365 -369 -374 -379 -378 -384 1757 0
-358 -366 -373 -377 -362 -370 -380 -383 1757 0
-357 -363 -365 -371 -374 -381 -376 -383 1758 0
-358 -366 -373 -375 -364 -372 -382 -384 1758 0
-359 -363 -367 -371 -373 -377 -380 -383 1759 0
-360 -368 -374 -379 -364 -372 -378 -384 1759 0
-360 -368 -374 -362 -370 -376 -364 -372 -378 1760 0
-359 -361 -363 -367 -369 -371 -373 -375 -377 1760 0
-358 -366 -373 -362 -370 -380 -364 -372 -382 1761 0
-357 -361 -363 -365 -369 -371 -374 -379 -381 1761 0
-358 -366 -375 -360 -368 -379 -364 -372 -384 1762 0
-357 -359 -363 -365 -367 -371 -376 -380 -383 1762 0
-358 -366 -377 -360 -368 -381 -362 -370 -383 1763 0
-357 -359 -361 -365 -367 -369 -378 -382 -384 1763 0
-356 -365 -367 -362 -376 -380 -364 -378 -382 1764 0
-355 -361 -363 -366 -375 -377 -368 -379 -381 1764 0
-356 -365 -369 -360 -374 -379 -364 -378 -384 1765 0
-355 -359 -363 -366 -373 -377 -370 -380 -383 1765 0
-356 -365 -371 -360 -374 -381 -362 -376 -383 1766 0
-355 -359 -361 -366 -373 -375 -372 -382 -384 1766 0
-356 -367 -369 -358 -373 -375 -364 -382 -384 1767 0
-355 -357 -363 -368 -374 -381 -370 -376 -383 1767 0
-356 -367 -371 -358 -373 -377 -362 -380 -383 1768 0
-355 -357 -361 -368 -374 -379 -372 -378 -384 1768 0
-356 -369 -371 -358 -375 -377 -360 -379 -381 1769 0
-355 -357 -359 -370 -376 -380 -372 -378 -382 1769 0
-388 -396 -390 -398 -392 -400 -394 -402 1770 0
-387 -389 -391 -393 -395 -397 -399 -401 1770 0
-611 -613 -619 -621 -625 -627 -634 -636 1770 0
-612 -620 -626 -633 -614 -622 -628 -635 1770 0
-386 -395 -390 -404 -392 -406 -394 -408 1771 0
-385 -389 -391 -393 -396 -403 -405 -407 1771 0
-386 -397 -388 -403 -392 -410 -394 -412 1772 0
-385 -387 -391 -393 -398 -404 -409 -411 1772 0
-386 -399 -388 -405 -390 -409 -394 -414 1773 0
-385 -387 -389 -393 -400 -406 -410 -413 1773 0
-386 -401 -388 -407 -390 -411 -392 -413 1774 0
-385 -387 -389 -391 -402 -408 -412 -414 1774 0
-489 -491 -497 -499 -508 -512 -510 -514 1774 0
-490 -498 -507 -509 -492 -500 -511 -513 1774 0
-385 -387 -398 -404 -400 -406 -402 -408 1775 0
-386 -397 -399 -401 -388 -403 -405 -407 1775 0
-523 -525 -531 -533 -537 -539 -541 -543 1775 0
-524 -532 -538 -542 -526 -534 -540 -544 1775 0
-385 -389 -396 -403 -400 -410 -402 -412 1776 0
-386 -395 -399 -401 -390 -404 -409 -411 1776 0
-385 -391 -396 -405 -398 -409 -402 -414 1777 0
-386 -395 -397 -401 -392 -406 -410 -413 1777 0
-385 -393 -396 -407 -398 -411 -400 -413 1778 0
-386 -395 -397 -399 -394 -408 -412 -414 1778 0
-387 -391 -395 -399 -404 -409 -408 -414 1779 0
-388 -396 -403 -407 -392 -400 -410 -413 1779 0
-387 -393 -395 -401 -404 -411 -406 -413 1780 0
-388 -396 -403 -405 -394 -402 -412 -414 1780 0
-389 -393 -397 -401 -403 -407 -410 -413 1781 0
-390 -398 -404 -409 -394 -402 -408 -414 1781 0
-390 -398 -404 -392 -400 -406 -394 -402 -408 1782 0
-389 -391 -393 -397 -399 -401 -403 -405 -407 1782 0
-388 -396 -403 -392 -400 -410 -394 -402 -412 1783 0
-387 -391 -393 -395 -399 -401 -404 -409 -411 1783 0
-388 -396 -405 -390 -398 -409 -394 -402 -414 1784 0
-387 -389 -393 -395 -397 -401 -406 -410 -413 1784 0
-388 -396 -407 -390 -398 -411 -392 -400 -413 1785 0
-387 -389 -391 -395 -397 -399 -408 -412 -414 1785 0
-386 -395 -397 -392 -406 -410 -394 -408 -412 1786 0
-385 -391 -393 -396 -405 -407 -398 -409 -411 1786 0
-386 -395 -399 -390 -404 -409 -394 -408 -414 1787 0
-385 -389 -393 -396 -403 -407 -400 -410 -413 1787 0
-386 -395 -401 -390 -404 -411 -392 -406 -413 1788 0
-385 -389 -391 -396 -403 -405 -402 -412 -414 1788 0
-386 -397 -399 -388 -403 -405 -394 -412 -414 1789 0
-385 -387 -393 -398 -404 -411 -400 -406 -413 1789 0
-386 -397 -401 -388 -403 -407 -392 -410 -413 1790 0
-385 -387 -391 -398 -404 -409 -402 -408 -414 1790 0
-386 -399 -401 -388 -405 -407 -390 -409 -411 1791 0
-385 -387 -389 -400 -406 -410 -402 -408 -412 1791 0
-418 -426 -420 -428 -422 -430 -424 -432 1513 1792 0
-417 -419 -421 -423 -425 -427 -429 -431 1513 1792 0
-638 -645 -640 -647 1516 1792 0
-637 -639 -646 -648 1516 1792 0
-711 -713 -719 -721 -730 -734 -732 -736 1517 1792 0
-712 -720 -729 -731 -714 -722 -733 -735 1517 1792 0
-416 -425 -420 -434 -422 -436 -424 -438 1513 1793 0
-415 -419 -421 -423 -426 -433 -435 -437 1513 1793 0
-416 -427 -418 -433 -422 -440 -424 -442 1513 1794 0
-415 -417 -421 -423 -428 -434 -439 -441 1513 1794 0
-416 -429 -418 -435 -420 -439 -424 -444 1513 1795 0
-415 -417 -419 -423 -430 -436 -440 -443 1513 1795 0
-416 -431 -418 -437 -420 -441 -422 -443 1513 1796 0
-415 -417 -419 -421 -432 -438 -442 -444 1513 1796 0
-519 -521 -527 -529 -538 -542 -540 -544 1796 0
-520 -528 -537 -539 -522 -530 -541 -543 1796 0
-415 -417 -428 -434 -430 -436 -432 -438 1513 1797 0
-416 -427 -429 -431 -418 -433 -435 -437 1513 1797 0
-415 -419 -426 -433 -430 -440 -432 -442 1513 1798 0
-416 -425 -429 -431 -420 -434 -439 -441 1513 1798 0
-415 -421 -426 -435 -428 -439 -432 -444 1513 1799 0
-416 -425 -427 -431 -422 -436 -440 -443 1513 1799 0
-415 -423 -426 -437 -428 -441 -430 -443 1513 1800 0
-416 -425 -427 -429 -424 -438 -442 -444 1513 1800 0
-417 -421 -425 -429 -434 -439 -438 -444 1513 1801 0
-418 -426 -433 -437 -422 -430 -440 -443 1513 1801 0
-417 -423 -425 -431 -434 -441 -436 -443 1513 1802 0
-418 -426 -433 -435 -424 -432 -442 -444 1513 1802 0
-419 -423 -427 -431 -433 -437 -440 -443 1513 1803 0
-420 -428 -434 -439 -424 -432 -438 -444 1513 1803 0
-420 -428 -434 -422 -430 -436 -424 -432 -438 1513 1804 0
-419 -421 -423 -427 -429 -431 -433 -435 -437 1513 1804 0
-418 -426 -433 -422 -430 -440 -424 -432 -442 1513 1805 0
-417 -421 -423 -425 -429 -431 -434 -439 -441 1513 1805 0
-418 -426 -435 -420 -428 -439 -424 -432 -444 1513 1806 0
-417 -419 -423 -425 -427 -431 -436 -440 -443 1513 1806 0
-418 -426 -437 -420 -428 -441 -422 -430 -443 1513 1807 0
-417 -419 -421 -425 -427 -429 -438 -442 -444 1513 1807 0
-416 -425 -427 -422 -436 -440 -424 -438 -442 1513 1808 0
-415 -421 -423 -426 -435 -437 -428 -439 -441 1513 1808 0
-416 -425 -429 -420 -434 -439 -424 -438 -444 1513 1809 0
-415 -419 -423 -426 -433 -437 -430 -440 -443 1513 1809 0
-416 -425 -431 -420 -434 -441 -422 -436 -443 1513 1810 0
-415 -419 -421 -426 -433 -435 -432 -442 -444 1513 1810 0
-416 -427 -429 -418 -433 -435 -424 -442 -444 1513 1811 0
-415 -417 -423 -428 -434 -441 -430 -436 -443 1513 1811 0
-416 -427 -431 -418 -433 -437 -422 -440 -443 1513 1812 0
-415 -417 -421 -428 -434 -439 -432 -438 -444 1513 1812 0
-416 -429 -431 -418 -435 -437 -420 -439 -441 1513 1813 0
-415 -417 -419 -430 -436 -440 -432 -438 -442 1513 1813 0
-446 -451 -450 -456 1514 1814 0
-445 -449 -452 -455 1514 1814 0
-460 -468 -462 -470 -464 -472 -466 -474 1815 0
-459 -461 -463 -465 -467 -469 -471 -473 1815 0
-653 -655 -661 -663 -667 -669 -676 -678 1815 0
-654 -662 -668 -675 -656 -664 -670 -677 1815 0
-458 -467 -462 -476 -464 -478 -466 -480 1816 0
-457 -461 -463 -465 -468 -475 -477 -479 1816 0
-458 -469 -460 -475 -464 -482 -466 -484 1817 0
-457 -459 -463 -465 -470 -476 -481 -483 1817 0
-458 -471 -460 -477 -462 -481 -466 -486 1818 0
-457 -459 -461 -465 -472 -478 -482 -485 1818 0
-458 -473 -460 -479 -462 -483 -464 -485 1819 0
-457 -459 -461 -463 -474 -480 -484 -486 1819 0
-549 -551 -557 -559 -568 -572 -570 -574 1515 1819 0
-550 -558 -567 -569 -552 -560 -571 -573 1515 1819 0
-457 -459 -470 -476 -472 -478 -474 -480 1820 0
-458 -469 -471 -473 -460 -475 -477 -479 1820 0
-583 -585 -591 -593 -597 -599 -601 -603 1820 0
-584 -592 -598 -602 -586 -594 -600 -604 1820 0
-457 -461 -468 -475 -472 -482 -474 -484 1821 0
-458 -467 -471 -473 -462 -476 -481 -483 1821 0
-457 -463 -468 -477 -470 -481 -474 -486 1822 0
-458 -467 -469 -473 -464 -478 -482 -485 1822 0
-457 -465 -468 -479 -470 -483 -472 -485 1823 0
-458 -467 -469 -471 -466 -480 -484 -486 1823 0
-459 -463 -467 -471 -476 -481 -480 -486 1824 0
-460 -468 -475 -479 -464 -472 -482 -485 1824 0
-459 -465 -467 -473 -476 -483 -478 -485 1825 0
-460 -468 -475 -477 -466 -474 -484 -486 1825 0
-461 -465 -469 -473 -475 -479 -482 -485 1826 0
-462 -470 -476 -481 -466 -474 -480 -486 1826 0
-462 -470 -476 -464 -472 -478 -466 -474 -480 1827 0
-461 -463 -465 -469 -471 -473 -475 -477 -479 1827 0
-460 -468 -475 -464 -472 -482 -466 -474 -484 1828 0
-459 -463 -465 -467 -471 -473 -476 -481 -483 1828 0
-460 -468 -477 -462 -470 -481 -466 -474 -486 1829 0
-459 -461 -465 -467 -469 -473 -478 -482 -485 1829 0
-460 -468 -479 -462 -470 -483 -464 -472 -485 1830 0
-459 -461 -463 -467 -469 -471 -480 -484 -486 1830 0
-458 -467 -469 -464 -478 -482 -466 -480 -484 1831 0
-457 -463 -465 -468 -477 -479 -470 -481 -483 1831 0
-458 -467 -471 -462 -476 -481 -466 -480 -486 1832 0
-457 -461 -465 -468 -475 -479 -472 -482 -485 1832 0
-458 -467 -473 -462 -476 -483 -464 -478 -485 1833 0
-457 -461 -463 -468 -475 -477 -474 -484 -486 1833 0
-458 -469 -471 -460 -475 -477 -466 -484 -486 1834 0
-457 -459 -465 -470 -476 -483 -472 -478 -485 1834 0
-458 -469 -473 -460 -475 -479 -464 -482 -485 1835 0
-457 -459 -463 -470 -476 -481 -474 -480 -486 1835 0
-458 -471 -473 -460 -477 -479 -462 -481 -483 1836 0
-457 -459 -461 -472 -478 -482 -474 -480 -484 1836 0
-490 -498 -492 -500 -494 -502 -496 -504 1837 0
-489 -491 -493 -495 -497 -499 -501 -503 1837 0
-683 -685 -691 -693 -697 -699 -706 -708 1837 0
-684 -692 -698 -705 -686 -694 -700 -707 1837 0
-488 -497 -492 -506 -494 -508 -496 -510 1838 0
-487 -491 -493 -495 -498 -505 -507 -509 1838 0
-488 -499 -490 -505 -494 -512 -496 -514 1839 0
-487 -489 -493 -495 -500 -506 -511 -513 1839 0
-488 -501 -490 -507 -492 -511 -496 -516 1840 0
-487 -489 -491 -495 -502 -508 -512 -515 1840 0
-488 -503 -490 -509 -492 -513 -494 -515 1841 0
-487 -489 -491 -493 -504 -510 -514 -516 1841 0
-579 -581 -587 -589 -598 -602 -600 -604 1841 0
-580 -588 -597 -599 -582 -590 -601 -603 1841 0
-487 -489 -500 -506 -502 -508 -504 -510 1842 0
-488 -499 -501 -503 -490 -505 -507 -509 1842 0
-613 -615 -621 -623 -627 -629 -631 -633 1842 0
-614 -622 -628 -632 -616 -624 -630 -634 1842 0
-487 -491 -498 -505 -502 -512 -504 -514 1843 0
-488 -497 -501 -503 -492 -506 -511 -513 1843 0
-487 -493 -498 -507 -500 -511 -504 -516 1844 0
-488 -497 -499 -503 -494 -508 -512 -515 1844 0
-487 -495 -498 -509 -500 -513 -502 -515 1845 0
-488 -497 -499 -501 -496 -510 -514 -516 1845 0
-489 -493 -497 -501 -506 -511 -510 -516 1846 0
-490 -498 -505 -509 -494 -502 -512 -515 1846 0
-489 -495 -497 -503 -506 -513 -508 -515 1847 0
-490 -498 -505 -507 -496 -504 -514 -516 1847 0
-491 -495 -499 -503 -505 -509 -512 -515 1848 0
-492 -500 -506 -511 -496 -504 -510 -516 1848 0
-492 -500 -506 -494 -502 -508 -496 -504 -510 1849 0
-491 -493 -495 -499 -501 -503 -505 -507 -509 1849 0
-490 -498 -505 -494 -502 -512 -496 -504 -514 1850 0
-489 -493 -495 -497 -501 -503 -506 -511 -513 1850 0
-490 -498 -507 -492 -500 -511 -496 -504 -516 1851 0
-489 -491 -495 -497 -499 -503 -508 -512 -515 1851 0
-490 -498 -509 -492 -500 -513 -494 -502 -515 1852 0
-489 -491 -493 -497 -499 -501 -510 -514 -516 1852 0
-488 -497 -499 -494 -508 -512 -496 -510 -514 1853 0
-487 -493 -495 -498 -507 -509 -500 -511 -513 1853 0
-488 -497 -501 -492 -506 -511 -496 -510 -516 1854 0
-487 -491 -495 -498 -505 -509 -502 -512 -515 1854 0
-488 -497 -503 -492 -506 -513 -494 -508 -515 1855 0
-487 -491 -493 -498 -505 -507 -504 -514 -516 1855 0
-488 -499 -501 -490 -505 -507 -496 -514 -516 1856 0
-487 -489 -495 -500 -506 -513 -502 -508 -515 1856 0
-488 -499 -503 -490 -505 -509 -494 -512 -515 1857 0
-487 -489 -493 -500 -506 -511 -504 -510 -516 1857 0
-488 -501 -503 -490 -507 -509 -492 -511 -513 1858 0
-487 -489 -491 -502 -508 -512 -504 -510 -514 1858 0
-520 -528 -522 -530 -524 -532 -526 -534 1859 0
-519 -521 -523 -525 -527 -529 -531 -533 1859 0
-713 -715 -721 -723 -727 -729 -736 -738 1517 1859 0
-714 -722 -728 -735 -716 -724 -730 -737 1517 1859 0
-518 -527 -522 -536 -524 -538 -526 -540 1860 0
-517 -521 -523 -525 -528 -535 -537 -539 1860 0
-518 -529 -520 -535 -524 -542 -526 -544 1861 0
-517 -519 -523 -525 -530 -536 -541 -543 1861 0
-518 -531 -520 -537 -522 -541 -526 -546 1862 0
-517 -519 -521 -525 -532 -538 -542 -545 1862 0
-518 -533 -520 -539 -522 -543 -524 -545 1863 0
-517 -519 -521 -523 -534 -540 -544 -546 1863 0
-609 -611 -617 -619 -628 -632 -630 -634 1863 0
-610 -618 -627 -629 -612 -620 -631 -633 1863 0
-517 -519 -530 -536 -532 -538 -534 -540 1864 0
-518 -529 -531 -533 -520 -535 -537 -539 1864 0
-640 -644 -642 -646 1516 1864 0
-639 -641 -643 -645 1516 1864 0
-517 -521 -528 -535 -532 -542 -534 -544 1865 0
-518 -527 -531 -533 -522 -536 -541 -543 1865 0
-517 -523 -528 -537 -530 -541 -534 -546 1866 0
-518 -527 -529 -533 -524 -538 -542 -545 1866 0
-517 -525 -528 -539 -530 -543 -532 -545 1867 0
-518 -527 -529 -531 -526 -540 -544 -546 1867 0
-519 -523 -527 -531 -536 -541 -540 -546 1868 0
-520 -528 -535 -539 -524 -532 -542 -545 1868 0
-519 -525 -527 -533 -536 -543 -538 -545 1869 0
-520 -528 -535 -537 -526 -534 -544 -546 1869 0
-521 -525 -529 -533 -535 -539 -542 -545 1870 0
-522 -530 -536 -541 -526 -534 -540 -546 1870 0
-522 -530 -536 -524 -532 -538 -526 -534 -540 1871 0
-521 -523 -525 -529 -531 -533 -535 -537 -539 1871 0
-520 -528 -535 -524 -532 -542 -526 -534 -544 1872 0
-519 -523 -525 -527 -531 -533 -536 -541 -543 1872 0
-520 -528 -537 -522 -530 -541 -526 -534 -546 1873 0
-519 -521 -525 -527 -529 -533 -538 -542 -545 1873 0
-520 -528 -539 -522 -530 -543 -524 -532 -545 1874 0
-519 -521 -523 -527 -529 -531 -540 -544 -546 1874 0
-518 -527 -529 -524 -538 -542 -526 -540 -544 1875 0
-517 -523 -525 -528 -537 -539 -530 -541 -543 1875 0
-518 -527 -531 -522 -536 -541 -526 -540 -546 1876 0
-517 -521 -525 -528 -535 -539 -532 -542 -545 1876 0
-518 -527 -533 -522 -536 -543 -524 -538 -545 1877 0
-517 -521 -523 -528 -535 -537 -534 -544 -546 1877 0
-518 -529 -531 -520 -535 -537 -526 -544 -546 1878 0
-517 -519 -525 -530 -536 -543 -532 -538 -545 1878 0
-518 -529 -533 -520 -535 -539 -524 -542 -545 1879 0
-517 -519 -523 -530 -536 -541 -534 -540 -546 1879 0
-518 -531 -533 -520 -537 -539 -522 -541 -543 1880 0
-517 -519 -521 -532 -538 -542 -534 -540 -544 1880 0
-550 -558 -552 -560 -554 -562 -556 -564 1515 1881 0
-549 -551 -553 -555 -557 -559 -561 -563 1515 1881 0
-742 -746 -744 -748 1518 1881 0
-741 -743 -745 -747 1518 1881 0
-817 -819 -825 -827 -831 -833 -835 -837 1519 1881 0
-818 -826 -832 -836 -820 -828 -834 -838 1519 1881 0
-548 -557 -552 -566 -554 -568 -556 -570 1515 1882 0
-547 -551 -553 -555 -558 -565 -567 -569 1515 1882 0
-548 -559 -550 -565 -554 -572 -556 -574 1515 1883 0
-547 -549 -553 -555 -560 -566 -571 -573 1515 1883 0
-548 -561 -550 -567 -552 -571 -556 -576 1515 1884 0
-547 -549 -551 -555 -562 -568 -572 -575 1515 1884 0
-548 -563 -550 -569 -552 -573 -554 -575 1515 1885 0
-547 -549 -551 -553 -564 -570 -574 -576 1515 1885 0
-547 -549 -560 -566 -562 -568 -564 -570 1515 1886 0
-548 -559 -561 -563 -550 -565 -567 -569 1515 1886 0
-655 -657 -663 -665 -669 -671 -673 -675 1886 0
-656 -664 -670 -674 -658 -666 -672 -676 1886 0
-547 -551 -558 -565 -562 -572 -564 -574 1515 1887 0
-548 -557 -561 -563 -552 -566 -571 -573 1515 1887 0
-547 -553 -558 -567 -560 -571 -564 -576 1515 1888 0
-548 -557 -559 -563 -554 -568 -572 -575 1515 1888 0
-547 -555 -558 -569 -560 -573 -562 -575 1515 1889 0
-548 -557 -559 -561 -556 -570 -574 -576 1515 1889 0
-549 -553 -557 -561 -566 -571 -570 -576 1515 1890 0
-550 -558 -565 -569 -554 -562 -572 -575 1515 1890 0
-549 -555 -557 -563 -566 -573 -568 -575 1515 1891 0
-550 -558 -565 -567 -556 -564 -574 -576 1515 1891 0
-551 -555 -559 -563 -565 -569 -572 -575 1515 1892 0
-552 -560 -566 -571 -556 -564 -570 -576 1515 1892 0
-552 -560 -566 -554 -562 -568 -556 -564 -570 1515 1893 0
-551 -553 -555 -559 -561 -563 -565 -567 -569 1515 1893 0
-550 -558 -565 -554 -562 -572 -556 -564 -574 1515 1894 0
-549 -553 -555 -557 -561 -563 -566 -571 -573 1515 1894 0
-550 -558 -567 -552 -560 -571 -556 -564 -576 1515 1895 0
-549 -551 -555 -557 -559 -563 -568 -572 -575 1515 1895 0
-550 -558 -569 -552 -560 -573 -554 -562 -575 1515 1896 0
-549 -551 -553 -557 -559 -561 -570 -574 -576 1515 1896 0
-548 -557 -559 -554 -568 -572 -556 -570 -574 1515 1897 0
-547 -553 -555 -558 -567 -569 -560 -571 -573 1515 1897 0
-548 -557 -561 -552 -566 -571 -556 -570 -576 1515 1898 0
-547 -551 -555 -558 -565 -569 -562 -572 -575 1515 1898 0
-548 -557 -563 -552 -566 -573 -554 -568 -575 1515 1899 0
-547 -551 -553 -558 -565 -567 -564 -574 -576 1515 1899 0
-548 -559 -561 -550 -565 -567 -556 -574 -576 1515 1900 0
-547 -549 -555 -560 -566 -573 -562 -568 -575 1515 1900 0
-548 -559 -563 -550 -565 -569 -554 -572 -575 1515 1901 0
-547 -549 -553 -560 -566 -571 -564 -570 -576 1515 1901 0
-548 -561 -563 -550 -567 -569 -552 -571 -573 1515 1902 0
-547 -549 -551 -562 -568 -572 -564 -570 -574 1515 1902 0
-580 -588 -582 -590 -584 -592 -586 -594 1903 0
-579 -581 -583 -585 -587 -589 -591 -593 1903 0
-755 -757 -763 -765 -769 -771 -778 -780 1903 0
-756 -764 -770 -777 -758 -766 -772 -779 1903 0
-578 -587 -582 -596 -584 -598 -586 -600 1904 0
-577 -581 -583 -585 -588 -595 -597 -599 1904 0
-578 -589 -580 -595 -584 -602 -586 -604 1905 0
-577 -579 -583 -585 -590 -596 -601 -603 1905 0
-578 -591 -580 -597 -582 -601 -586 -606 1906 0
-577 -579 -581 -585 -592 -598 -602 -605 1906 0
-578 -593 -580 -599 -582 -603 -584 -605 1907 0
-577 -579 -581 -583 -594 -600 -604 -606 1907 0
-651 -653 -659 -661 -670 -674 -672 -676 1907 0
-652 -660 -669 -671 -654 -662 -673 -675 1907 0
-577 -579 -590 -596 -592 -598 -594 -600 1908 0
-578 -589 -591 -593 -580 -595 -597 -599 1908 0
-685 -687 -693 -695 -699 -701 -703 -705 1908 0
-686 -694 -700 -704 -688 -696 -702 -706 1908 0
-577 -581 -588 -595 -592 -602 -594 -604 1909 0
-578 -587 -591 -593 -582 -596 -601 -603 1909 0
-577 -583 -588 -597 -590 -601 -594 -606 1910 0
-578 -587 -589 -593 -584 -598 -602 -605 1910 0
-577 -585 -588 -599 -590 -603 -592 -605 1911 0
-578 -587 -589 -591 -586 -600 -604 -606 1911 0
-579 -583 -587 -591 -596 -601 -600 -606 1912 0
-580 -588 -595 -599 -584 -592 -602 -605 1912 0
-579 -585 -587 -593 -596 -603 -598 -605 1913 0
-580 -588 -595 -597 -586 -594 -604 -606 1913 0
-581 -585 -589 -593 -595 -599 -602 -605 1914 0
-582 -590 -596 -601 -586 -594 -600 -606 1914 0
-582 -590 -596 -584 -592 -598 -586 -594 -600 1915 0
-581 -583 -585 -589 -591 -593 -595 -597 -599 1915 0
-580 -588 -595 -584 -592 -602 -586 -594 -604 1916 0
-579 -583 -585 -587 -591 -593 -596 -601 -603 1916 0
-580 -588 -597 -582 -590 -601 -586 -594 -606 1917 0
-579 -581 -585 -587 -589 -593 -598 -602 -605 1917 0
-580 -588 -599 -582 -590 -603 -584 -592 -605 1918 0
-579 -581 -583 -587 -589 -591 -600 -604 -606 1918 0
-578 -587 -589 -584 -598 -602 -586 -600 -604 1919 0
-577 -583 -585 -588 -597 -599 -590 -601 -603 1919 0
-578 -587 -591 -582 -596 -601 -586 -600 -606 1920 0
-577 -581 -585 -588 -595 -599 -592 -602 -605 1920 0
-578 -587 -593 -582 -596 -603 -584 -598 -605 1921 0
-577 -581 -583 -588 -595 -597 -594 -604 -606 1921 0
-578 -589 -591 -580 -595 -597 -586 -604 -606 1922 0
-577 -579 -585 -590 -596 -603 -592 -598 -605 1922 0
-578 -589 -593 -580 -595 -599 -584 -602 -605 1923 0
-577 -579 -583 -590 -596 -601 -594 -600 -606 1923 0
-578 -591 -593 -580 -597 -599 -582 -601 -603 1924 0
-577 -579 -581 -592 -598 -602 -594 -600 -604 1924 0
-610 -618 -612 -620 -614 -622 -616 -624 1925 0
-609 -611 -613 -615 -617 -619 -621 -623 1925 0
-785 -787 -793 -795 -799 -801 -808 -810 1925 0
-786 -794 -800 -807 -788 -796 -802 -809 1925 0
-608 -617 -612 -626 -614 -628 -616 -630 1926 0
-607 -611 -613 -615 -618 -625 -627 -629 1926 0
-608 -619 -610 -625 -614 -632 -616 -634 1927 0
-607 -609 -613 -615 -620 -626 -631 -633 1927 0
-608 -621 -610 -627 -612 -631 -616 -636 1928 0
-607 -609 -611 -615 -622 -628 -632 -635 1928 0
-608 -623 -610 -629 -612 -633 -614 -635 1929 0
-607 -609 -611 -613 -624 -630 -634 -636 1929 0
-681 -683 -689 -691 -700 -704 -702 -706 1929 0
-682 -690 -699 -701 -684 -692 -703 -705 1929 0
-607 -609 -620 -626 -622 -628 -624 -630 1930 0
-608 -619 -621 -623 -610 -625 -627 -629 1930 0
-715 -717 -723 -725 -729 -731 -733 -735 1517 1930 0
-716 -724 -730 -734 -718 -726 -732 -736 1517 1930 0
-607 -611 -618 -625 -622 -632 -624 -634 1931 0
-608 -617 -621 -623 -612 -626 -631 -633 1931 0
-607 -613 -618 -627 -620 -631 -624 -636 1932 0
-608 -617 -619 -623 -614 -628 -632 -635 1932 0
-607 -615 -618 -629 -620 -633 -622 -635 1933 0
-608 -617 -619 -621 -616 -630 -634 -636 1933 0
-609 -613 -617 -621 -626 -631 -630 -636 1934 0
-610 -618 -625 -629 -614 -622 -632 -635 1934 0
-609 -615 -617 -623 -626 -633 -628 -635 1935 0
-610 -618 -625 -627 -616 -624 -634 -636 1935 0
-611 -615 -619 -623 -625 -629 -632 -635 1936 0
-612 -620 -626 -631 -616 -624 -630 -636 1936 0
-612 -620 -626 -614 -622 -628 -616 -624 -630 1937 0
-611 -613 -615 -619 -621 -623 -625 -627 -629 1937 0
-610 -618 -625 -614 -622 -632 -616 -624 -634 1938 0
-609 -613 -615 -617 -621 -623 -626 -631 -633 1938 0
-610 -618 -627 -612 -620 -631 -616 -624 -636 1939 0
-609 -611 -615 -617 -619 -623 -628 -632 -635 1939 0
-610 -618 -629 -612 -620 -633 -614 -622 -635 1940 0
-609 -611 -613 -617 -619 -621 -630 -634 -636 1940 0
-608 -617 -619 -614 -628 -632 -616 -630 -634 1941 0
-607 -613 -615 -618 -627 -629 -620 -631 -633 1941 0
-608 -617 -621 -612 -626 -631 -616 -630 -636 1942 0
-607 -611 -615 -618 -625 -629 -622 -632 -635 1942 0
-608 -617 -623 -612 -626 -633 -614 -628 -635 1943 0
-607 -611 -613 -618 -625 -627 -624 -634 -636 1943 0
-608 -619 -621 -610 -625 -627 -616 -634 -636 1944 0
-607 -609 -615 -620 -626 -633 -622 -628 -635 1944 0
-608 -619 -623 -610 -625 -629 -614 -632 -635 1945 0
-607 -609 -613 -620 -626 -631 -624 -630 -636 1945 0
-608 -621 -623 -610 -627 -629 -612 -631 -633 1946 0
-607 -609 -611 -622 -628 -632 -624 -630 -634 1946 0
-638 -643 -642 -648 1516 1947 0
-637 -641 -644 -647 1516 1947 0
-652 -660 -654 -662 -656 -664 -658 -666 1948 0
-651 -653 -655 -657 -659 -661 -663 -665 1948 0
-815 -817 -823 -825 -829 -831 -838 -840 1519 1948 0
-816 -824 -830 -837 -818 -826 -832 -839 1519 1948 0
-650 -659 -654 -668 -656 -670 -658 -672 1949 0
-649 -653 -655 -657 -660 -667 -669 -671 1949 0
-650 -661 -652 -667 -656 -674 -658 -676 1950 0
-649 -651 -655 -657 -662 -668 -673 -675 1950 0
-650 -663 -652 -669 -654 -673 -658 -678 1951 0
-649 -651 -653 -657 -664 -670 -674 -677 1951 0
-650 -665 -652 -671 -654 -675 -656 -677 1952 0
-649 -651 -653 -655 -666 -672 -676 -678 1952 0
-740 -747 -742 -749 1518 1952 0
-739 -741 -748 -750 1518 1952 0
-649 -651 -662 -668 -664 -670 -666 -672 1953 0
-650 -661 -663 -665 -652 -667 -669 -671 1953 0
-757 -759 -765 -767 -771 -773 -775 -777 1953 0
-758 -766 -772 -776 -760 -768 -774 -778 1953 0
-649 -653 -660 -667 -664 -674 -666 -676 1954 0
-650 -659 -663 -665 -654 -668 -673 -675 1954 0
-649 -655 -660 -669 -662 -673 -666 -678 1955 0
-650 -659 -661 -665 -656 -670 -674 -677 1955 0
-649 -657 -660 -671 -662 -675 -664 -677 1956 0
-650 -659 -661 -663 -658 -672 -676 -678 1956 0
-651 -655 -659 -663 -668 -673 -672 -678 1957 0
-652 -660 -667 -671 -656 -664 -674 -677 1957 0
-651 -657 -659 -665 -668 -675 -670 -677 1958 0
-652 -660 -667 -669 -658 -666 -676 -678 1958 0
-653 -657 -661 -665 -667 -671 -674 -677 1959 0
-654 -662 -668 -673 -658 -666 -672 -678 1959 0
-654 -662 -668 -656 -664 -670 -658 -666 -672 1960 0
-653 -655 -657 -661 -663 -665 -667 -669 -671 1960 0
-652 -660 -667 -656 -664 -674 -658 -666 -676 1961 0
-651 -655 -657 -659 -663 -665 -668 -673 -675 1961 0
-652 -660 -669 -654 -662 -673 -658 -666 -678 1962 0
-651 -653 -657 -659 -661 -665 -670 -674 -677 1962 0
-652 -660 -671 -654 -662 -675 -656 -664 -677 1963 0
-651 -653 -655 -659 -661 -663 -672 -676 -678 1963 0
-650 -659 -661 -656 -670 -674 -658 -672 -676 1964 0
-649 -655 -657 -660 -669 -671 -662 -673 -675 1964 0
-650 -659 -663 -654 -668 -673 -658 -672 -678 1965 0
-649 -653 -657 -660 -667 -671 -664 -674 -677 1965 0
-650 -659 -665 -654 -668 -675 -656 -670 -677 1966 0
-649 -653 -655 -660 -667 -669 -666 -676 -678 1966 0
-650 -661 -663 -652 -667 -669 -658 -676 -678 1967 0
-649 -651 -657 -662 -668 -675 -664 -670 -677 1967 0
-650 -661 -665 -652 -667 -671 -656 -674 -677 1968 0
-649 -651 -655 -662 -668 -673 -666 -672 -678 1968 0
-650 -663 -665 -652 -669 -671 -654 -673 -675 1969 0
-649 -651 -653 -664 -670 -674 -666 -672 -676 1969 0
-682 -690 -684 -692 -686 -694 -688 -696 1970 0
-681 -683 -685 -687 -689 -691 -693 -695 1970 0
-845 -847 -853 -855 -859 -861 -868 -870 1970 0
-846 -854 -860 -867 -848 -856 -862 -869 1970 0
-680 -689 -684 -698 -686 -700 -688 -702 1971 0
-679 -683 -685 -687 -690 -697 -699 -701 1971 0
-680 -691 -682 -697 -686 -704 -688 -706 1972 0
-679 -681 -685 -687 -692 -698 -703 -705 1972 0
-680 -693 -682 -699 -684 -703 -688 -708 1973 0
-679 -681 -683 -687 -694 -700 -704 -707 1973 0
-680 -695 -682 -701 -684 -705 -686 -707 1974 0
-679 -681 -683 -685 -696 -702 -706 -708 1974 0
-753 -755 -761 -763 -772 -776 -774 -778 1974 0
-754 -762 -771 -773 -756 -764 -775 -777 1974 0
-679 -681 -692 -698 -694 -700 -696 -702 1975 0
-680 -691 -693 -695 -682 -697 -699 -701 1975 0
-787 -789 -795 -797 -801 -803 -805 -807 1975 0
-788 -796 -802 -806 -790 -798 -804 -808 1975 0
-679 -683 -690 -697 -694 -704 -696 -706 1976 0
-680 -689 -693 -695 -684 -698 -703 -705 1976 0
-679 -685 -690 -699 -692 -703 -696 -708 1977 0
-680 -689 -691 -695 -686 -700 -704 -707 1977 0
-679 -687 -690 -701 -692 -705 -694 -707 1978 0
-680 -689 -691 -693 -688 -702 -706 -708 1978 0
-681 -685 -689 -693 -698 -703 -702 -708 1979 0
-682 -690 -697 -701 -686 -694 -704 -707 1979 0
-681 -687 -689 -695 -698 -705 -700 -707 1980 0
-682 -690 -697 -699 -688 -696 -706 -708 1980 0
-683 -687 -691 -695 -697 -701 -704 -707 1981 0
-684 -692 -698 -703 -688 -696 -702 -708 1981 0
-684 -692 -698 -686 -694 -700 -688 -696 -702 1982 0
-683 -685 -687 -691 -693 -695 -697 -699 -701 1982 0
-682 -690 -697 -686 -694 -704 -688 -696 -706 1983 0
-681 -685 -687 -689 -693 -695 -698 -703 -705 1983 0
-682 -690 -699 -684 -692 -703 -688 -696 -708 1984 0
-681 -683 -687 -689 -691 -695 -700 -704 -707 1984 0
-682 -690 -701 -684 -692 -705 -686 -694 -707 1985 0
-681 -683 -685 -689 -691 -693 -702 -706 -708 1985 0
-680 -689 -691 -686 -700 -704 -688 -702 -706 1986 0
-679 -685 -687 -690 -699 -701 -692 -703 -705 1986 0
-680 -689 -693 -684 -698 -703 -688 -702 -708 1987 0
-679 -683 -687 -690 -697 -701 -694 -704 -707 1987 0
-680 -689 -695 -684 -698 -705 -686 -700 -707 1988 0
-679 -683 -685 -690 -697 -699 -696 -706 -708 1988 0
-680 -691 -693 -682 -697 -699 -688 -706 -708 1989 0
-679 -681 -687 -692 -698 -705 -694 -700 -707 1989 0
-680 -691 -695 -682 -697 -701 -686 -704 -707 1990 0
-679 -681 -685 -692 -698 -703 -696 -702 -708 1990 0
-680 -693 -695 -682 -699 -701 -684 -703 -705 1991 0
-679 -681 -683 -694 -700 -704 -696 -702 -706 1991 0
-712 -720 -714 -722 -716 -724 -718 -726 1517 1992 0
-711 -713 -715 -717 -719 -721 -723 -725 1517 1992 0
-872 -879 -874 -881 1520 1992 0
-871 -873 -880 -882 1520 1992 0
-915 -917 -923 -925 -934 -938 -936 -940 1521 1992 0
-916 -924 -933 -935 -918 -926 -937 -939 1521 1992 0
-710 -719 -714 -728 -716 -730 -718 -732 1517 1993 0
-709 -713 -715 -717 -720 -727 -729 -731 1517 1993 0
-710 -721 -712 -727 -716 -734 -718 -736 1517 1994 0
-709 -711 -715 -717 -722 -728 -733 -735 1517 1994 0
-710 -723 -712 -729 -714 -733 -718 -738 1517 1995 0
-709 -711 -713 -717 -724 -730 -734 -737 1517 1995 0
-710 -725 -712 -731 -714 -735 -716 -737 1517 1996 0
-709 -711 -713 -715 -726 -732 -736 -738 1517 1996 0
-783 -785 -791 -793 -802 -806 -804 -808 1996 0
-784 -792 -801 -803 -786 -794 -805 -807 1996 0
-709 -711 -722 -728 -724 -730 -726 -732 1517 1997 0
-710 -721 -723 -725 -712 -727 -729 -731 1517 1997 0
-709 -713 -720 -727 -724 -734 -726 -736 1517 1998 0
-710 -719 -723 -725 -714 -728 -733 -735 1517 1998 0
-709 -715 -720 -729 -722 -733 -726 -738 1517 1999 0
-710 -719 -721 -725 -716 -730 -734 -737 1517 1999 0
-709 -717 -720 -731 -722 -735 -724 -737 1517 2000 0
-710 -719 -721 -723 -718 -732 -736 -738 1517 2000 0
-711 -715 -719 -723 -728 -733 -732 -738 1517 2001 0
-712 -720 -727 -731 -716 -724 -734 -737 1517 2001 0
-711 -717 -719 -725 -728 -735 -730 -737 1517 2002 0
-712 -720 -727 -729 -718 -726 -736 -738 1517 2002 0
-713 -717 -721 -725 -727 -731 -734 -737 1517 2003 0
-714 -722 -728 -733 -718 -726 -732 -738 1517 2003 0
-714 -722 -728 -716 -724 -730 -718 -726 -732 1517 2004 0
-713 -715 -717 -721 -723 -725 -727 -729 -731 1517 2004 0
-712 -720 -727 -716 -724 -734 -718 -726 -736 1517 2005 0
-711 -715 -717 -719 -723 -725 -728 -733 -735 1517 2005 0
-712 -720 -729 -714 -722 -733 -718 -726 -738 1517 2006 0
-711 -713 -717 -719 -721 -725 -730 -734 -737 1517 2006 0
-712 -720 -731 -714 -722 -735 -716 -724 -737 1517 2007 0
-711 -713 -715 -719 -721 -723 -732 -736 -738 1517 2007 0
-710 -719 -721 -716 -730 -734 -718 -732 -736 1517 2008 0
-709 -715 -717 -720 -729 -731 -722 -733 -735 1517 2008 0
-710 -719 -723 -714 -728 -733 -718 -732 -738 1517 2009 0
-709 -713 -717 -720 -727 -731 -724 -734 -737 1517 2009 0
-710 -719 -725 -714 -728 -735 -716 -730 -737 1517 2010 0
-709 -713 -715 -720 -727 -729 -726 -736 -738 1517 2010 0
-710 -721 -723 -712 -727 -729 -718 -736 -738 1517 2011 0
-709 -711 -717 -722 -728 -735 -724 -730 -737 1517 2011 0
-710 -721 -725 -712 -727 -731 -716 -734 -737 1517 2012 0
-709 -711 -715 -722 -728 -733 -726 -732 -738 1517 2012 0
-710 -723 -725 -712 -729 -731 -714 -733 -735 1517 2013 0
-709 -711 -713 -724 -730 -734 -726 -732 -736 1517 2013 0
-740 -745 -744 -750 1518 2014 0
-739 -743 -746 -749 1518 2014 0
-754 -762 -756 -764 -758 -766 -760 -768 2015 0
-753 -755 -757 -759 -761 -763 -765 -767 2015 0
-887 -889 -895 -897 -901 -903 -910 -912 2015 0
-888 -896 -902 -909 -890 -898 -904 -911 2015 0
-752 -761 -756 -770 -758 -772 -760 -774 2016 0
-751 -755 -757 -759 -762 -769 -771 -773 2016 0
-752 -763 -754 -769 -758 -776 -760 -778 2017 0
-751 -753 -757 -759 -764 -770 -775 -777 2017 0
-752 -765 -754 -771 -756 -775 -760 -780 2018 0
-751 -753 -755 -759 -766 -772 -776 -779 2018 0
-752 -767 -754 -773 -756 -777 -758 -779 2019 0
-751 -753 -755 -757 -768 -774 -778 -780 2019 0
-813 -815 -821 -823 -832 -836 -834 -838 1519 2019 0
-814 -822 -831 -833 -816 -824 -835 -837 1519 2019 0
-751 -753 -764 -770 -766 -772 -768 -774 2020 0
-752 -763 -765 -767 -754 -769 -771 -773 2020 0
-847 -849 -855 -857 -861 -863 -865 -867 2020 0
-848 -856 -862 -866 -850 -858 -864 -868 2020 0
-751 -755 -762 -769 -766 -776 -768 -778 2021 0
-752 -761 -765 -767 -756 -770 -775 -777 2021 0
-751 -757 -762 -771 -764 -775 -768 -780 2022 0
-752 -761 -763 -767 -758 -772 -776 -779 2022 0
-751 -759 -762 -773 -764 -777 -766 -779 2023 0
-752 -761 -763 -765 -760 -774 -778 -780 2023 0
-753 -757 -761 -765 -770 -775 -774 -780 2024 0
-754 -762 -769 -773 -758 -766 -776 -779 2024 0
-753 -759 -761 -767 -770 -777 -772 -779 2025 0
-754 -762 -769 -771 -760 -768 -778 -780 2025 0
-755 -759 -763 -767 -769 -773 -776 -779 2026 0
-756 -764 -770 -775 -760 -768 -774 -780 2026 0
-756 -764 -770 -758 -766 -772 -760 -768 -774 2027 0
-755 -757 -759 -763 -765 -767 -769 -771 -773 2027 0
-754 -762 -769 -758 -766 -776 -760 -768 -778 2028 0
-753 -757 -759 -761 -765 -767 -770 -775 -777 2028 0
-754 -762 -771 -756 -764 -775 -760 -768 -780 2029 0
-753 -755 -759 -761 -763 -767 -772 -776 -779 2029 0
-754 -762 -773 -756 -764 -777 -758 -766 -779 2030 0
-753 -755 -757 -761 -763 -765 -774 -778 -780 2030 0
-752 -761 -763 -758 -772 -776 -760 -774 -778 2031 0
-751 -757 -759 -762 -771 -773 -764 -775 -777 2031 0
-752 -761 -765 -756 -770 -775 -760 -774 -780 2032 0
-751 -755 -759 -762 -769 -773 -766 -776 -779 2032 0
-752 -761 -767 -756 -770 -777 -758 -772 -779 2033 0
-751 -755 -757 -762 -769 -771 -768 -778 -780 2033 0
-752 -763 -765 -754 -769 -771 -760 -778 -780 2034 0
-751 -753 -759 -764 -770 -777 -766 -772 -779 2034 0
-752 -763 -767 -754 -769 -773 -758 -776 -779 2035 0
-751 -753 -757 -764 -770 -775 -768 -774 -780 2035 0
-752 -765 -767 -754 -771 -773 -756 -775 -777 2036 0
-751 -753 -755 -766 -772 -776 -768 -774 -778 2036 0
-784 -792 -786 -794 -788 -796 -790 -798 2037 0
-783 -785 -787 -789 -791 -793 -795 -797 2037 0
-917 -919 -925 -927 -931 -933 -940 -942 1521 2037 0
-918 -926 -932 -939 -920 -928 -934 -941 1521 2037 0
-782 -791 -786 -800 -788 -802 -790 -804 2038 0
-781 -785 -787 -789 -792 -799 -801 -803 2038 0
-782 -793 -784 -799 -788 -806 -790 -808 2039 0
-781 -783 -787 -789 -794 -800 -805 -807 2039 0
-782 -795 -784 -801 -786 -805 -790 -810 2040 0
-781 -783 -785 -789 -796 -802 -806 -809 2040 0
-782 -797 -784 -803 -786 -807 -788 -809 2041 0
-781 -783 -785 -787 -798 -804 -808 -810 2041 0
-843 -845 -851 -853 -862 -866 -864 -868 2041 0
-844 -852 -861 -863 -846 -854 -865 -867 2041 0
-781 -783 -794 -800 -796 -802 -798 -804 2042 0
-782 -793 -795 -797 -784 -799 -801 -803 2042 0
-874 -878 -876 -880 1520 2042 0
-873 -875 -877 -879 1520 2042 0
-781 -785 -792 -799 -796 -806 -798 -808 2043 0
-782 -791 -795 -797 -786 -800 -805 -807 2043 0
-781 -787 -792 -801 -794 -805 -798 -810 2044 0
-782 -791 -793 -797 -788 -802 -806 -809 2044 0
-781 -789 -792 -803 -794 -807 -796 -809 2045 0
-782 -791 -793 -795 -790 -804 -808 -810 2045 0
-783 -787 -791 -795 -800 -805 -804 -810 2046 0
-784 -792 -799 -803 -788 -796 -806 -809 2046 0
-783 -789 -791 -797 -800 -807 -802 -809 2047 0
-784 -792 -799 -801 -790 -798 -808 -810 2047 0
-785 -789 -793 -797 -799 -803 -806 -809 2048 0
-786 -794 -800 -805 -790 -798 -804 -810 2048 0
-786 -794 -800 -788 -796 -802 -790 -798 -804 2049 0
-785 -787 -789 -793 -795 -797 -799 -801 -803 2049 0
-784 -792 -799 -788 -796 -806 -790 -798 -808 2050 0
-783 -787 -789 -791 -795 -797 -800 -805 -807 2050 0
-784 -792 -801 -786 -794 -805 -790 -798 -810 2051 0
-783 -785 -789 -791 -793 -797 -802 -806 -809 2051 0
-784 -792 -803 -786 -794 -807 -788 -796 -809 2052 0
-783 -785 -787 -791 -793 -795 -804 -808 -810 2052 0
-782 -791 -793 -788 -802 -806 -790 -804 -808 2053 0
-781 -787 -789 -792 -801 -803 -794 -805 -807 2053 0
-782 -791 -795 -786 -800 -805 -790 -804 -810 2054 0
-781 -785 -789 -792 -799 -803 -796 -806 -809 2054 0
-782 -791 -797 -786 -800 -807 -788 -802 -809 2055 0
-781 -785 -787 -792 -799 -801 -798 -808 -810 2055 0
-782 -793 -795 -784 -799 -801 -790 -808 -810 2056 0
-781 -783 -789 -794 -800 -807 -796 -802 -809 2056 0
-782 -793 -797 -784 -799 -803 -788 -806 -809 2057 0
-781 -783 -787 -794 -800 -805 -798 -804 -810 2057 0
-782 -795 -797 -784 -801 -803 -786 -805 -807 2058 0
-781 -783 -785 -796 -802 -806 -798 -804 -808 2058 0
-814 -822 -816 -824 -818 -826 -820 -828 1519 2059 0
-813 -815 -817 -819 -821 -823 -825 -827 1519 2059 0
-946 -950 -948 -952 1522 2059 0
-945 -947 -949 -951 1522 2059 0
-991 -993 -999 -1001 -1005 -1007 -1009 -1011 1523 2059 0
-992 -1000 -1006 -1010 -994 -1002 -1008 -1012 1523 2059 0
-812 -821 -816 -830 -818 -832 -820 -834 1519 2060 0
-811 -815 -817 -819 -822 -829 -831 -833 1519 2060 0
-812 -823 -814 -829 -818 -836 -820 -838 1519 2061 0
-811 -813 -817 -819 -824 -830 -835 -837 1519 2061 0
-812 -825 -814 -831 -816 -835 -820 -840 1519 2062 0
-811 -813 -815 -819 -826 -832 -836 -839 1519 2062 0
-812 -827 -814 -833 -816 -837 -818 -839 1519 2063 0
-811 -813 -815 -817 -828 -834 -838 -840 1519 2063 0
-811 -813 -824 -830 -826 -832 -828 -834 1519 2064 0
-812 -823 -825 -827 -814 -829 -831 -833 1519 2064 0
-889 -891 -897 -899 -903 -905 -907 -909 2064 0
-890 -898 -904 -908 -892 -900 -906 -910 2064 0
-811 -815 -822 -829 -826 -836 -828 -838 1519 2065 0
-812 -821 -825 -827 -816 -830 -835 -837 1519 2065 0
-811 -817 -822 -831 -824 -835 -828 -840 1519 2066 0
-812 -821 -823 -827 -818 -832 -836 -839 1519 2066 0
-811 -819 -822 -833 -824 -837 -826 -839 1519 2067 0
-812 -821 -823 -825 -820 -834 -838 -840 1519 2067 0
-813 -817 -821 -825 -830 -835 -834 -840 1519 2068 0
-814 -822 -829 -833 -818 -826 -836 -839 1519 2068 0
-813 -819 -821 -827 -830 -837 -832 -839 1519 2069 0
-814 -822 -829 -831 -820 -828 -838 -840 1519 2069 0
-815 -819 -823 -827 -829 -833 -836 -839 1519 2070 0
-816 -824 -830 -835 -820 -828 -834 -840 1519 2070 0
-816 -824 -830 -818 -826 -832 -820 -828 -834 1519 2071 0
-815 -817 -819 -823 -825 -827 -829 -831 -833 1519 2071 0
-814 -822 -829 -818 -826 -836 -820 -828 -838 1519 2072 0
-813 -817 -819 -821 -825 -827 -830 -835 -837 1519 2072 0
-814 -822 -831 -816 -824 -835 -820 -828 -840 1519 2073 0
-813 -815 -819 -821 -823 -827 -832 -836 -839 1519 2073 0
-814 -822 -833 -816 -824 -837 -818 -826 -839 1519 2074 0
-813 -815 -817 -821 -823 -825 -834 -838 -840 1519 2074 0
-812 -821 -823 -818 -832 -836 -820 -834 -838 1519 2075 0
-811 -817 -819 -822 -831 -833 -824 -835 -837 1519 2075 0
-812 -821 -825 -816 -830 -835 -820 -834 -840 1519 2076 0
-811 -815 -819 -822 -829 -833 -826 -836 -839 1519 2076 0
-812 -821 -827 -816 -830 -837 -818 -832 -839 1519 2077 0
-811 -815 -817 -822 -829 -831 -828 -838 -840 1519 2077 0
-812 -823 -825 -814 -829 -831 -820 -838 -840 1519 2078 0
-811 -813 -819 -824 -830 -837 -826 -832 -839 1519 2078 0
-812 -823 -827 -814 -829 -833 -818 -836 -839 1519 2079 0
-811 -813 -817 -824 -830 -835 -828 -834 -840 1519 2079 0
-812 -825 -827 -814 -831 -833 -816 -835 -837 1519 2080 0
-811 -813 -815 -826 -832 -836 -828 -834 -838 1519 2080 0
-844 -852 -846 -854 -848 -856 -850 -858 2081 0
-843 -845 -847 -849 -851 -853 -855 -857 2081 0
-959 -961 -967 -969 -973 -975 -982 -984 2081 0
-960 -968 -974 -981 -962 -970 -976 -983 2081 0
-842 -851 -846 -860 -848 -862 -850 -864 2082 0
-841 -845 -847 -849 -852 -859 -861 -863 2082 0
-842 -853 -844 -859 -848 -866 -850 -868 2083 0
-841 -843 -847 -849 -854 -860 -865 -867 2083 0
-842 -855 -844 -861 -846 -865 -850 -870 2084 0
-841 -843 -845 -849 -856 -862 -866 -869 2084 0
-842 -857 -844 -863 -846 -867 -848 -869 2085 0
-841 -843 -845 -847 -858 -864 -868 -870 2085 0
-885 -887 -893 -895 -904 -908 -906 -910 2085 0
-886 -894 -903 -905 -888 -896 -907 -909 2085 0
-841 -843 -854 -860 -856 -862 -858 -864 2086 0
-842 -853 -855 -857 -844 -859 -861 -863 2086 0
-919 -921 -927 -929 -933 -935 -937 -939 1521 2086 0
-920 -928 -934 -938 -922 -930 -936 -940 1521 2086 0
-841 -845 -852 -859 -856 -866 -858 -868 2087 0
-842 -851 -855 -857 -846 -860 -865 -867 2087 0
-841 -847 -852 -861 -854 -865 -858 -870 2088 0
-842 -851 -853 -857 -848 -862 -866 -869 2088 0
-841 -849 -852 -863 -854 -867 -856 -869 2089 0
-842 -851 -853 -855 -850 -864 -868 -870 2089 0
-843 -847 -851 -855 -860 -865 -864 -870 2090 0
-844 -852 -859 -863 -848 -856 -866 -869 2090 0
-843 -849 -851 -857 -860 -867 -862 -869 2091 0
-844 -852 -859 -861 -850 -858 -868 -870 2091 0
-845 -849 -853 -857 -859 -863 -866 -869 2092 0
-846 -854 -860 -865 -850 -858 -864 -870 2092 0
-846 -854 -860 -848 -856 -862 -850 -858 -864 2093 0
-845 -847 -849 -853 -855 -857 -859 -861 -863 2093 0
-844 -852 -859 -848 -856 -866 -850 -858 -868 2094 0
-843 -847 -849 -851 -855 -857 -860 -865 -867 2094 0
-844 -852 -861 -846 -854 -865 -850 -858 -870 2095 0
-843 -845 -849 -851 -853 -857 -862 -866 -869 2095 0
-844 -852 -863 -846 -854 -867 -848 -856 -869 2096 0
-843 -845 -847 -851 -853 -855 -864 -868 -870 2096 0
-842 -851 -853 -848 -862 -866 -850 -864 -868 2097 0
-841 -847 -849 -852 -861 -863 -854 -865 -867 2097 0
-842 -851 -855 -846 -860 -865 -850 -864 -870 2098 0
-841 -845 -849 -852 -859 -863 -856 -866 -869 2098 0
-842 -851 -857 -846 -860 -867 -848 -862 -869 2099 0
-841 -845 -847 -852 -859 -861 -858 -868 -870 2099 0
-842 -853 -855 -844 -859 -861 -850 -868 -870 2100 0
-841 -843 -849 -854 -860 -867 -856 -862 -869 2100 0
-842 -853 -857 -844 -859 -863 -848 -866 -869 2101 0
-841 -843 -847 -854 -860 -865 -858 -864 -870 2101 0
-842 -855 -857 -844 -861 -863 -846 -865 -867 2102 0
-841 -843 -845 -856 -862 -866 -858 -864 -868 2102 0
-872 -877 -876 -882 1520 2103 0
-871 -875 -878 -881 1520 2103 0
-886 -894 -888 -896 -890 -898 -892 -900 2104 0
-885 -887 -889 -891 -893 -895 -897 -899 2104 0
-989 -991 -997 -999 -1003 -1005 -1012 -1014 1523 2104 0
-990 -998 -1004 -1011 -992 -1000 -1006 -1013 1523 2104 0
-884 -893 -888 -902 -890 -904 -892 -906 2105 0
-883 -887 -889 -891 -894 -901 -903 -905 2105 0
-884 -895 -886 -901 -890 -908 -892 -910 2106 0
-883 -885 -889 -891 -896 -902 -907 -909 2106 0
-884 -897 -886 -903 -888 -907 -892 -912 2107 0
-883 -885 -887 -891 -898 -904 -908 -911 2107 0
-884 -899 -886 -905 -888 -909 -890 -911 2108 0
-883 -885 -887 -889 -900 -906 -910 -912 2108 0
-944 -951 -946 -953 1522 2108 0
-943 -945 -952 -954 1522 2108 0
-883 -885 -896 -902 -898 -904 -900 -906 2109 0
-884 -895 -897 -899 -886 -901 -903 -905 2109 0
-961 -963 -969 -971 -975 -977 -979 -981 2109 0
-962 -970 -976 -980 -964 -972 -978 -982 2109 0
-883 -887 -894 -901 -898 -908 -900 -910 2110 0
-884 -893 -897 -899 -888 -902 -907 -909 2110 0
-883 -889 -894 -903 -896 -907 -900 -912 2111 0
-884 -893 -895 -899 -890 -904 -908 -911 2111 0
-883 -891 -894 -905 -896 -909 -898 -911 2112 0
-884 -893 -895 -897 -892 -906 -910 -912 2112 0
-885 -889 -893 -897 -902 -907 -906 -912 2113 0
-886 -894 -901 -905 -890 -898 -908 -911 2113 0
-885 -891 -893 -899 -902 -909 -904 -911 2114 0
-886 -894 -901 -903 -892 -900 -910 -912 2114 0
-887 -891 -895 -899 -901 -905 -908 -911 2115 0
-888 -896 -902 -907 -892 -900 -906 -912 2115 0
-888 -896 -902 -890 -898 -904 -892 -900 -906 2116 0
-887 -889 -891 -895 -897 -899 -901 -903 -905 2116 0
-886 -894 -901 -890 -898 -908 -892 -900 -910 2117 0
-885 -889 -891 -893 -897 -899 -902 -907 -909 2117 0
-886 -894 -903 -888 -896 -907 -892 -900 -912 2118 0
-885 -887 -891 -893 -895 -899 -904 -908 -911 2118 0
-886 -894 -905 -888 -896 -909 -890 -898 -911 2119 0
-885 -887 -889 -893 -895 -897 -906 -910 -912 2119 0
-884 -893 -895 -890 -904 -908 -892 -906 -910 2120 0
-883 -889 -891 -894 -903 -905 -896 -907 -909 2120 0
-884 -893 -897 -888 -902 -907 -892 -906 -912 2121 0
-883 -887 -891 -894 -901 -905 -898 -908 -911 2121 0
-884 -893 -899 -888 -902 -909 -890 -904 -911 2122 0
-883 -887 -889 -894 -901 -903 -900 -910 -912 2122 0
-884 -895 -897 -886 -901 -903 -892 -910 -912 2123 0
-883 -885 -891 -896 -902 -909 -898 -904 -911 2123 0
-884 -895 -899 -886 -901 -905 -890 -908 -911 2124 0
-883 -885 -889 -896 -902 -907 -900 -906 -912 2124 0
-884 -897 -899 -886 -903 -905 -888 -907 -909 2125 0
-883 -885 -887 -898 -904 -908 -900 -906 -910 2125 0
-916 -924 -918 -926 -920 -928 -922 -930 1521 2126 0
-915 -917 -919 -921 -923 -925 -927 -929 1521 2126 0
-1016 -1023 -1018 -1025 1524 2126 0
-1015 -1017 -1024 -1026 1524 2126 0
-1029 -1031 -1037 -1039 -1048 -1052 -1050 -1054 1525 2126 0
-1030 -1038 -1047 -1049 -1032 -1040 -1051 -1053 1525 2126 0
-914 -923 -918 -932 -920 -934 -922 -936 1521 2127 0
-913 -917 -919 -921 -924 -931 -933 -935 1521 2127 0
-914 -925 -916 -931 -920 -938 -922 -940 1521 2128 0
-913 -915 -919 -921 -926 -932 -937 -939 1521 2128 0
-914 -927 -916 -933 -918 -937 -922 -942 1521 2129 0
-913 -915 -917 -921 -928 -934 -938 -941 1521 2129 0
-914 -929 -916 -935 -918 -939 -920 -941 1521 2130 0
-913 -915 -917 -919 -930 -936 -940 -942 1521 2130 0
-957 -959 -965 -967 -976 -980 -978 -982 2130 0
-958 -966 -975 -977 -960 -968 -979 -981 2130 0
-913 -915 -926 -932 -928 -934 -930 -936 1521 2131 0
-914 -925 -927 -929 -916 -931 -933 -935 1521 2131 0
-913 -917 -924 -931 -928 -938 -930 -940 1521 2132 0
-914 -923 -927 -929 -918 -932 -937 -939 1521 2132 0
-913 -919 -924 -933 -926 -937 -930 -942 1521 2133 0
-914 -923 -925 -929 -920 -934 -938 -941 1521 2133 0
-913 -921 -924 -935 -926 -939 -928 -941 1521 2134 0
-914 -923 -925 -927 -922 -936 -940 -942 1521 2134 0
-915 -919 -923 -927 -932 -937 -936 -942 1521 2135 0
-916 -924 -931 -935 -920 -928 -938 -941 1521 2135 0
-915 -921 -923 -929 -932 -939 -934 -941 1521 2136 0
-916 -924 -931 -933 -922 -930 -940 -942 1521 2136 0
-917 -921 -925 -929 -931 -935 -938 -941 1521 2137 0
-918 -926 -932 -937 -922 -930 -936 -942 1521 2137 0
-918 -926 -932 -920 -928 -934 -922 -930 -936 1521 2138 0
-917 -919 -921 -925 -927 -929 -931 -933 -935 1521 2138 0
-916 -924 -931 -920 -928 -938 -922 -930 -940 1521 2139 0
-915 -919 -921 -923 -927 -929 -932 -937 -939 1521 2139 0
-916 -924 -933 -918 -926 -937 -922 -930 -942 1521 2140 0
-915 -917 -921 -923 -925 -929 -934 -938 -941 1521 2140 0
-916 -924 -935 -918 -926 -939 -920 -928 -941 1521 2141 0
-915 -917 -919 -923 -925 -927 -936 -940 -942 1521 2141 0
-914 -923 -925 -920 -934 -938 -922 -936 -940 1521 2142 0
-913 -919 -921 -924 -933 -935 -926 -937 -939 1521 2142 0
-914 -923 -927 -918 -932 -937 -922 -936 -942 1521 2143 0
-913 -917 -921 -924 -931 -935 -928 -938 -941 1521 2143 0
-914 -923 -929 -918 -932 -939 -920 -934 -941 1521 2144 0
-913 -917 -919 -924 -931 -933 -930 -940 -942 1521 2144 0
-914 -925 -927 -916 -931 -933 -922 -940 -942 1521 2145 0
-913 -915 -921 -926 -932 -939 -928 -934 -941 1521 2145 0
-914 -925 -929 -916 -931 -935 -920 -938 -941 1521 2146 0
-913 -915 -919 -926 -932 -937 -930 -936 -942 1521 2146 0
-914 -927 -929 -916 -933 -935 -918 -937 -939 1521 2147 0
-913 -915 -917 -928 -934 -938 -930 -936 -940 1521 2147 0
-944 -949 -948 -954 1522 2148 0
-943 -947 -950 -953 1522 2148 0
-958 -966 -960 -968 -962 -970 -964 -972 2149 0
-957 -959 -961 -963 -965 -967 -969 -971 2149 0
-1031 -1033 -1039 -1041 -1045 -1047 -1054 -1056 1525 2149 0
-1032 -1040 -1046 -1053 -1034 -1042 -1048 -1055 1525 2149 0
-956 -965 -960 -974 -962 -976 -964 -978 2150 0
-955 -959 -961 -963 -966 -973 -975 -977 2150 0
-956 -967 -958 -973 -962 -980 -964 -982 2151 0
-955 -957 -961 -963 -968 -974 -979 -981 2151 0
-956 -969 -958 -975 -960 -979 -964 -984 2152 0
-955 -957 -959 -963 -970 -976 -980 -983 2152 0
-956 -971 -958 -977 -960 -981 -962 -983 2153 0
-955 -957 -959 -961 -972 -978 -982 -984 2153 0
-987 -989 -995 -997 -1006 -1010 -1008 -1012 1523 2153 0
-988 -996 -1005 -1007 -990 -998 -1009 -1011 1523 2153 0
-955 -957 -968 -974 -970 -976 -972 -978 2154 0
-956 -967 -969 -971 -958 -973 -975 -977 2154 0
-1018 -1022 -1020 -1024 1524 2154 0
-1017 -1019 -1021 -1023 1524 2154 0
-955 -959 -966 -973 -970 -980 -972 -982 2155 0
-956 -965 -969 -971 -960 -974 -979 -981 2155 0
-955 -961 -966 -975 -968 -979 -972 -984 2156 0
-956 -965 -967 -971 -962 -976 -980 -983 2156 0
-955 -963 -966 -977 -968 -981 -970 -983 2157 0
-956 -965 -967 -969 -964 -978 -982 -984 2157 0
-957 -961 -965 -969 -974 -979 -978 -984 2158 0
-958 -966 -973 -977 -962 -970 -980 -983 2158 0
-957 -963 -965 -971 -974 -981 -976 -983 2159 0
-958 -966 -973 -975 -964 -972 -982 -984 2159 0
-959 -963 -967 -971 -973 -977 -980 -983 2160 0
-960 -968 -974 -979 -964 -972 -978 -984 2160 0
-960 -968 -974 -962 -970 -976 -964 -972 -978 2161 0
-959 -961 -963 -967 -969 -971 -973 -975 -977 2161 0
-958 -966 -973 -962 -970 -980 -964 -972 -982 2162 0
-957 -961 -963 -965 -969 -971 -974 -979 -981 2162 0
-958 -966 -975 -960 -968 -979 -964 -972 -984 2163 0
-957 -959 -963 -965 -967 -971 -976 -980 -983 2163 0
-958 -966 -977 -960 -968 -981 -962 -970 -983 2164 0
-957 -959 -961 -965 -967 -969 -978 -982 -984 2164 0
-956 -965 -967 -962 -976 -980 -964 -978 -982 2165 0
-955 -961 -963 -966 -975 -977 -968 -979 -981 2165 0
-956 -965 -969 -960 -974 -979 -964 -978 -984 2166 0
-955 -959 -963 -966 -973 -977 -970 -980 -983 2166 0
-956 -965 -971 -960 -974 -981 -962 -976 -983 2167 0
-955 -959 -961 -966 -973 -975 -972 -982 -984 2167 0
-956 -967 -969 -958 -973 -975 -964 -982 -984 2168 0
-955 -957 -963 -968 -974 -981 -970 -976 -983 2168 0
-956 -967 -971 -958 -973 -977 -962 -980 -983 2169 0
-955 -957 -961 -968 -974 -979 -972 -978 -984 2169 0
-956 -969 -971 -958 -975 -977 -960 -979 -981 2170 0
-955 -957 -959 -970 -976 -980 -972 -978 -982 2170 0
-988 -996 -990 -998 -992 -1000 -994 -1002 1523 2171 0
-987 -989 -991 -993 -995 -997 -999 -1001 1523 2171 0
-1060 -1064 -1062 -1066 1526 2171 0
-1059 -1061 -1063 -1065 1526 2171 0
-1072 -1076 -1074 -1078 1527 2171 0
-1071 -1073 -1075 -1077 1527 2171 0
-986 -995 -990 -1004 -992 -1006 -994 -1008 1523 2172 0
-985 -989 -991 -993 -996 -1003 -1005 -1007 1523 2172 0
-986 -997 -988 -1003 -992 -1010 -994 -1012 1523 2173 0
-985 -987 -991 -993 -998 -1004 -1009 -1011 1523 2173 0
-986 -999 -988 -1005 -990 -1009 -994 -1014 1523 2174 0
-985 -987 -989 -993 -1000 -1006 -1010 -1013 1523 2174 0
-986 -1001 -988 -1007 -990 -1011 -992 -1013 1523 2175 0
-985 -987 -989 -991 -1002 -1008 -1012 -1014 1523 2175 0
-985 -987 -998 -1004 -1000 -1006 -1002 -1008 1523 2176 0
-986 -997 -999 -1001 -988 -1003 -1005 -1007 1523 2176 0
-1033 -1035 -1041 -1043 -1047 -1049 -1051 -1053 1525 2176 0
-1034 -1042 -1048 -1052 -1036 -1044 -1050 -1054 1525 2176 0
-985 -989 -996 -1003 -1000 -1010 -1002 -1012 1523 2177 0
-986 -995 -999 -1001 -990 -1004 -1009 -1011 1523 2177 0
-985 -991 -996 -1005 -998 -1009 -1002 -1014 1523 2178 0
-986 -995 -997 -1001 -992 -1006 -1010 -1013 1523 2178 0
-985 -993 -996 -1007 -998 -1011 -1000 -1013 1523 2179 0
-986 -995 -997 -999 -994 -1008 -1012 -1014 1523 2179 0
-987 -991 -995 -999 -1004 -1009 -1008 -1014 1523 2180 0
-988 -996 -1003 -1007 -992 -1000 -1010 -1013 1523 2180 0
-987 -993 -995 -1001 -1004 -1011 -1006 -1013 1523 2181 0
-988 -996 -1003 -1005 -994 -1002 -1012 -1014 1523 2181 0
-989 -993 -997 -1001 -1003 -1007 -1010 -1013 1523 2182 0
-990 -998 -1004 -1009 -994 -1002 -1008 -1014 1523 2182 0
-990 -998 -1004 -992 -1000 -1006 -994 -1002 -1008 1523 2183 0
-989 -991 -993 -997 -999 -1001 -1003 -1005 -1007 1523 2183 0
-988 -996 -1003 -992 -1000 -1010 -994 -1002 -1012 1523 2184 0
-987 -991 -993 -995 -999 -1001 -1004 -1009 -1011 1523 2184 0
-988 -996 -1005 -990 -998 -1009 -994 -1002 -1014 1523 2185 0
-987 -989 -993 -995 -997 -1001 -1006 -1010 -1013 1523 2185 0
-988 -996 -1007 -990 -998 -1011 -992 -1000 -1013 1523 2186 0
-987 -989 -991 -995 -997 -999 -1008 -1012 -1014 1523 2186 0
-986 -995 -997 -992 -1006 -1010 -994 -1008 -1012 1523 2187 0
-985 -991 -993 -996 -1005 -1007 -998 -1009 -1011 1523 2187 0
-986 -995 -999 -990 -1004 -1009 -994 -1008 -1014 1523 2188 0
-985 -989 -993 -996 -1003 -1007 -1000 -1010 -1013 1523 2188 0
-986 -995 -1001 -990 -1004 -1011 -992 -1006 -1013 1523 2189 0
-985 -989 -991 -996 -1003 -1005 -1002 -1012 -1014 1523 2189 0
-986 -997 -999 -988 -1003 -1005 -994 -1012 -1014 1523 2190 0
-985 -987 -993 -998 -1004 -1011 -1000 -1006 -1013 1523 2190 0
-986 -997 -1001 -988 -1003 -1007 -992 -1010 -1013 1523 2191 0
-985 -987 -991 -998 -1004 -1009 -1002 -1008 -1014 1523 2191 0
-986 -999 -1001 -988 -1005 -1007 -990 -1009 -1011 1523 2192 0
-985 -987 -989 -1000 -1006 -1010 -1002 -1008 -1012 1523 2192 0
-1016 -1021 -1020 -1026 1524 2193 0
-1015 -1019 -1022 -1025 1524 2193 0
-1030 -1038 -1032 -1040 -1034 -1042 -1036 -1044 1525 2194 0
-1029 -1031 -1033 -1035 -1037 -1039 -1041 -1043 1525 2194 0
-1070 -1077 -1072 -1079 1527 2194 0
-1069 -1071 -1078 -1080 1527 2194 0
-1028 -1037 -1032 -1046 -1034 -1048 -1036 -1050 1525 2195 0
-1027 -1031 -1033 -1035 -1038 -1045 -1047 -1049 1525 2195 0
-1028 -1039 -1030 -1045 -1034 -1052 -1036 -1054 1525 2196 0
-1027 -1029 -1033 -1035 -1040 -1046 -1051 -1053 1525 2196 0
-1028 -1041 -1030 -1047 -1032 -1051 -1036 -1056 1525 2197 0
-1027 -1029 -1031 -1035 -1042 -1048 -1052 -1055 1525 2197 0
-1028 -1043 -1030 -1049 -1032 -1053 -1034 -1055 1525 2198 0
-1027 -1029 -1031 -1033 -1044 -1050 -1054 -1056 1525 2198 0
-1058 -1065 -1060 -1067 1526 2198 0
-1057 -1059 -1066 -1068 1526 2198 0
-1027 -1029 -1040 -1046 -1042 -1048 -1044 -1050 1525 2199 0
-1028 -1039 -1041 -1043 -1030 -1045 -1047 -1049 1525 2199 0
-1027 -1031 -1038 -1045 -1042 -1052 -1044 -1054 1525 2200 0
-1028 -1037 -1041 -1043 -1032 -1046 -1051 -1053 1525 2200 0
-1027 -1033 -1038 -1047 -1040 -1051 -1044 -1056 1525 2201 0
-1028 -1037 -1039 -1043 -1034 -1048 -1052 -1055 1525 2201 0
-1027 -1035 -1038 -1049 -1040 -1053 -1042 -1055 1525 2202 0
-1028 -1037 -1039 -1041 -1036 -1050 -1054 -1056 1525 2202 0
-1029 -1033 -1037 -1041 -1046 -1051 -1050 -1056 1525 2203 0
-1030 -1038 -1045 -1049 -1034 -1042 -1052 -1055 1525 2203 0
-1029 -1035 -1037 -1043 -1046 -1053 -1048 -1055 1525 2204 0
-1030 -1038 -1045 -1047 -1036 -1044 -1054 -1056 1525 2204 0
-1031 -1035 -1039 -1043 -1045 -1049 -1052 -1055 1525 2205 0
-1032 -1040 -1046 -1051 -1036 -1044 -1050 -1056 1525 2205 0
-1032 -1040 -1046 -1034 -1042 -1048 -1036 -1044 -1050 1525 2206 0
-1031 -1033 -1035 -1039 -1041 -1043 -1045 -1047 -1049 1525 2206 0
-1030 -1038 -1045 -1034 -1042 -1052 -1036 -1044 -1054 1525 2207 0
-1029 -1033 -1035 -1037 -1041 -1043 -1046 -1051 -1053 1525 2207 0
-1030 -1038 -1047 -1032 -1040 -1051 -1036 -1044 -1056 1525 2208 0
-1029 -1031 -1035 -1037 -1039 -1043 -1048 -1052 -1055 1525 2208 0
-1030 -1038 -1049 -1032 -1040 -1053 -1034 -1042 -1055 1525 2209 0
-1029 -1031 -1033 -1037 -1039 -1041 -1050 -1054 -1056 1525 2209 0
-1028 -1037 -1039 -1034 -1048 -1052 -1036 -1050 -1054 1525 2210 0
-1027 -1033 -1035 -1038 -1047 -1049 -1040 -1051 -1053 1525 2210 0
-1028 -1037 -1041 -1032 -1046 -1051 -1036 -1050 -1056 1525 2211 0
-1027 -1031 -1035 -1038 -1045 -1049 -1042 -1052 -1055 1525 2211 0
-1028 -1037 -1043 -1032 -1046 -1053 -1034 -1048 -1055 1525 2212 0
-1027 -1031 -1033 -1038 -1045 -1047 -1044 -1054 -1056 1525 2212 0
-1028 -1039 -1041 -1030 -1045 -1047 -1036 -1054 -1056 1525 2213 0
-1027 -1029 -1035 -1040 -1046 -1053 -1042 -1048 -1055 1525 2213 0
-1028 -1039 -1043 -1030 -1045 -1049 -1034 -1052 -1055 1525 2214 0
-1027 -1029 -1033 -1040 -1046 -1051 -1044 -1050 -1056 1525 2214 0
-1028 -1041 -1043 -1030 -1047 -1049 -1032 -1051 -1053 1525 2215 0
-1027 -1029 -1031 -1042 -1048 -1052 -1044 -1050 -1054 1525 2215 0
-1058 -1063 -1062 -1068 1526 2216 0
-1057 -1061 -1064 -1067 1526 2216 0
-1070 -1075 -1074 -1080 1527 2217 0
-1069 -1073 -1076 -1079 1527 2217 0
-1081 2218 0
-1082 2219 0
-1083 2220 0
-1084 2221 0
-1085 2222 0
-1086 2223 0
-1087 2224 0
-1088 2225 0
-1089 2226 0
-1090 2227 0
-1091 2228 0
-1092 2229 0
-1093 2230 0
-1094 2231 0
-1095 2232 0
-1096 2233 0
-1097 2234 0
-1098 2235 0
-1099 -1101 2236 0
-1100 -1103 2237 0
-1102 -1104 2238 0
-1101 -1103 2239 0
-1099 -1104 2240 0
-1100 -1102 2241 0
-1105 -1107 2242 0
-1106 -1109 2243 0
-1108 -1110 2244 0
-1107 -1109 2245 0
-1105 -1110 2246 0
-1106 -1108 2247 0
-1111 -1113 2248 0
-1112 -1115 2249 0
-1114 -1116 2250 0
-1113 -1115 2251 0
-1111 -1116 2252 0
-1112 -1114 2253 0
-1117 -1119 2254 0
-1118 -1121 2255 0
-1120 -1122 2256 0
-1119 -1121 2257 0
-1117 -1122 2258 0
-1118 -1120 2259 0
-1123 -1125 2260 0
-1124 -1127 2261 0
-1126 -1128 2262 0
-1125 -1127 2263 0
-1123 -1128 2264 0
-1124 -1126 2265 0
-1129 -1131 2266 0
-1130 -1133 2267 0
-1132 -1134 2268 0
-1131 -1133 2269 0
-1129 -1134 2270 0
-1130 -1132 2271 0
-1135 -1137 2272 0
-1136 -1139 2273 0
-1138 -1140 2274 0
-1137 -1139 2275 0
-1135 -1140 2276 0
-1136 -1138 2277 0
-1141 -1143 2278 0
-1142 -1145 2279 0
-1144 -1146 2280 0
-1143 -1145 2281 0
-1141 -1146 2282 0
-1142 -1144 2283 0
-1147 -1149 2284 0
-1148 -1151 2285 0
-1150 -1152 2286 0
-1149 -1151 2287 0
-1147 -1152 2288 0
-1148 -1150 2289 0
-1153 2290 0
-1154 2291 0
-1155 2292 0
-1156 2293 0
-1157 -1159 2294 0
-1158 -1161 2295 0
-1160 -1162 2296 0
-1159 -1161 2297 0
-1157 -1162 2298 0
-1158 -1160 2299 0
-1163 -1165 2300 0
-1164 -1167 2301 0
-1166 -1168 2302 0
-1165 -1167 2303 0
-1163 -1168 2304 0
-1164 -1166 2305 0
-1169 -1171 2306 0
-1170 -1173 2307 0
-1172 -1174 2308 0
-1171 -1173 2309 0
-1169 -1174 2310 0
-1170 -1172 2311 0
-1175 -1177 2312 0
-1176 -1179 2313 0
-1178 -1180 2314 0
-1177 -1179 2315 0
-1175 -1180 2316 0
-1176 -1178 2317 0
-1181 -1183 2318 0
-1182 -1185 2319 0
-1184 -1186 2320 0
-1183 -1185 2321 0
-1181 -1186 2322 0
-1182 -1184 2323 0
-1187 -1189 2324 0
-1188 -1191 2325 0
-1190 -1192 2326 0
-1189 -1191 2327 0
-1187 -1192 2328 0
-1188 -1190 2329 0
-1193 -1195 2330 0
-1194 -1197 2331 0
-1196 -1198 2332 0
-1195 -1197 2333 0
-1193 -1198 2334 0
-1194 -1196 2335 0
-1199 -1201 2336 0
-1200 -1203 2337 0
-1202 -1204 2338 0
-1201 -1203 2339 0
-1199 -1204 2340 0
-1200 -1202 2341 0
-1205 2342 0
-1206 2343 0
-1207 -1209 2344 0
-1208 -1211 2345 0
-1210 -1212 2346 0
-1209 -1211 2347 0
-1207 -1212 2348 0
-1208 -1210 2349 0
-1213 -1215 2350 0
-1214 -1217 2351 0
-1216 -1218 2352 0
-1215 -1217 2353 0
-1213 -1218 2354 0
-1214 -1216 2355 0
-1219 -1221 2356 0
-1220 -1223 2357 0
-1222 -1224 2358 0
-1221 -1223 2359 0
-1219 -1224 2360 0
-1220 -1222 2361 0
-1225 -1227 2362 0
-1226 -1229 2363 0
-1228 -1230 2364 0
-1227 -1229 2365 0
-1225 -1230 2366 0
-1226 -1228 2367 0
-1231 -1233 2368 0
-1232 -1235 2369 0
-1234 -1236 2370 0
-1233 -1235 2371 0
-1231 -1236 2372 0
-1232 -1234 2373 0
-1237 -1239 2374 0
-1238 -1241 2375 0
-1240 -1242 2376 0
-1239 -1241 2377 0
-1237 -1242 2378 0
-1238 -1240 2379 0
-1243 -1245 2380 0
-1244 -1247 2381 0
-1246 -1248 2382 0
-1245 -1247 2383 0
-1243 -1248 2384 0
-1244 -1246 2385 0
-1249 2386 0
-1250 2387 0
-1251 -1253 2388 0
-1252 -1255 2389 0
-1254 -1256 2390 0
-1253 -1255 2391 0
-1251 -1256 2392 0
-1252 -1254 2393 0
-1257 -1259 2394 0
-1258 -1261 2395 0
-1260 -1262 2396 0
-1259 -1261 2397 0
-1257 -1262 2398 0
-1258 -1260 2399 0
-1263 -1265 2400 0
-1264 -1267 2401 0
-1266 -1268 2402 0
-1265 -1267 2403 0
-1263 -1268 2404 0
-1264 -1266 2405 0
-1269 -1271 2406 0
-1270 -1273 2407 0
-1272 -1274 2408 0
-1271 -1273 2409 0
-1269 -1274 2410 0
-1270 -1272 2411 0
-1275 -1277 2412 0
-1276 -1279 2413 0
-1278 -1280 2414 0
-1277 -1279 2415 0
-1275 -1280 2416 0
-1276 -1278 2417 0
-1281 -1283 2418 0
-1282 -1285 2419 0
-1284 -1286 2420 0
-1283 -1285 2421 0
-1281 -1286 2422 0
-1282 -1284 2423 0
-1287 -1289 2424 0
-1288 -1291 2425 0
-1290 -1292 2426 0
-1289 -1291 2427 0
-1287 -1292 2428 0
-1288 -1290 2429 0
-1293 2430 0
-1294 2431 0
-1295 2432 0
-1296 2433 0
-1297 -1299 2434 0
-1298 -1301 2435 0
-1300 -1302 2436 0
-1299 -1301 2437 0
-1297 -1302 2438 0
-1298 -1300 2439 0
-1303 -1305 2440 0
-1304 -1307 2441 0
-1306 -1308 2442 0
-1305 -1307 2443 0
-1303 -1308 2444 0
-1304 -1306 2445 0
-1309 -1311 2446 0
-1310 -1313 2447 0
-1312 -1314 2448 0
-1311 -1313 2449 0
-1309 -1314 2450 0
-1310 -1312 2451 0
-1315 -1317 2452 0
-1316 -1319 2453 0
-1318 -1320 2454 0
-1317 -1319 2455 0
-1315 -1320 2456 0
-1316 -1318 2457 0
-1321 -1323 2458 0
-1322 -1325 2459 0
-1324 -1326 2460 0
-1323 -1325 2461 0
-1321 -1326 2462 0
-1322 -1324 2463 0
-1327 -1329 2464 0
-1328 -1331 2465 0
-1330 -1332 2466 0
-1329 -1331 2467 0
-1327 -1332 2468 0
-1328 -1330 2469 0
-1333 2470 0
-1334 2471 0
-1335 -1337 2472 0
-1336 -1339 2473 0
-1338 -1340 2474 0
-1337 -1339 2475 0
-1335 -1340 2476 0
-1336 -1338 2477 0
-1341 -1343 2478 0
-1342 -1345 2479 0
-1344 -1346 2480 0
-1343 -1345 2481 0
-1341 -1346 2482 0
-1342 -1344 2483 0
-1347 -1349 2484 0
-1348 -1351 2485 0
-1350 -1352 2486 0
-1349 -1351 2487 0
-1347 -1352 2488 0
-1348 -1350 2489 0
-1353 -1355 2490 0
-1354 -1357 2491 0
-1356 -1358 2492 0
-1355 -1357 2493 0
-1353 -1358 2494 0
-1354 -1356 2495 0
-1359 -1361 2496 0
-1360 -1363 2497 0
-1362 -1364 2498 0
-1361 -1363 2499 0
-1359 -1364 2500 0
-1360 -1362 2501 0
-1365 2502 0
-1366 2503 0
-1367 -1369 2504 0
-1368 -1371 2505 0
-1370 -1372 2506 0
-1369 -1371 2507 0
-1367 -1372 2508 0
-1368 -1370 2509 0
-1373 -1375 2510 0
-1374 -1377 2511 0
-1376 -1378 2512 0
-1375 -1377 2513 0
-1373 -1378 2514 0
-1374 -1376 2515 0
-1379 -1381 2516 0
-1380 -1383 2517 0
-1382 -1384 2518 0
-1381 -1383 2519 0
-1379 -1384 2520 0
-1380 -1382 2521 0
-1385 -1387 2522 0
-1386 -1389 2523 0
-1388 -1390 2524 0
-1387 -1389 2525 0
-1385 -1390 2526 0
-1386 -1388 2527 0
-1391 -1393 2528 0
-1392 -1395 2529 0
-1394 -1396 2530 0
-1393 -1395 2531 0
-1391 -1396 2532 0
-1392 -1394 2533 0
-1397 2534 0
-1398 2535 0
-1399 2536 0
-1400 2537 0
-1401 -1403 2538 0
-1402 -1405 2539 0
-1404 -1406 2540 0
-1403 -1405 2541 0
-1401 -1406 2542 0
-1402 -1404 2543 0
-1407 -1409 2544 0
-1408 -1411 2545 0
-1410 -1412 2546 0
-1409 -1411 2547 0
-1407 -1412 2548 0
-1408 -1410 2549 0
-1413 -1415 2550 0
-1414 -1417 2551 0
-1416 -1418 2552 0
-1415 -1417 2553 0
-1413 -1418 2554 0
-1414 -1416 2555 0
-1419 -1421 2556 0
-1420 -1423 2557 0
-1422 -1424 2558 0
-1421 -1423 2559 0
-1419 -1424 2560 0
-1420 -1422 2561 0
-1425 2562 0
-1426 2563 0
-1427 -1429 2564 0
-1428 -1431 2565 0
-1430 -1432 2566 0
-1429 -1431 2567 0
-1427 -1432 2568 0
-1428 -1430 2569 0
-1433 -1435 2570 0
-1434 -1437 2571 0
-1436 -1438 2572 0
-1435 -1437 2573 0
-1433 -1438 2574 0
-1434 -1436 2575 0
-1439 -1441 2576 0
-1440 -1443 2577 0
-1442 -1444 2578 0
-1441 -1443 2579 0
-1439 -1444 2580 0
-1440 -1442 2581 0
-1445 2582 0
-1446 2583 0
-1447 -1449 2584 0
-1448 -1451 2585 0
-1450 -1452 2586 0
-1449 -1451 2587 0
-1447 -1452 2588 0
-1448 -1450 2589 0
-1453 -1455 2590 0
-1454 -1457 2591 0
-1456 -1458 2592 0
-1455 -1457 2593 0
-1453 -1458 2594 0
-1454 -1456 2595 0
-1459 -1461 2596 0
-1460 -1463 2597 0
-1462 -1464 2598 0
-1461 -1463 2599 0
-1459 -1464 2600 0
-1460 -1462 2601 0
-1465 2602 0
-1466 2603 0
-1467 2604 0
-1468 2605 0
-1469 -1471 2606 0
-1470 -1473 2607 0
-1472 -1474 2608 0
-1471 -1473 2609 0
-1469 -1474 2610 0
-1470 -1472 2611 0
-1475 -1477 2612 0
-1476 -1479 2613 0
-1478 -1480 2614 0
-1477 -1479 2615 0
-1475 -1480 2616 0
-1476 -1478 2617 0
-1481 2618 0
-1482 2619 0
-1483 -1485 2620 0
-1484 -1487 2621 0
-1486 -1488 2622 0
-1485 -1487 2623 0
-1483 -1488 2624 0
-1484 -1486 2625 0
-1489 2626 0
-1490 2627 0
-1491 -1493 2628 0
-1492 -1495 2629 0
-1494 -1496 2630 0
-1493 -1495 2631 0
-1491 -1496 2632 0
-1492 -1494 2633 0
-1497 2634 0
-1498 2635 0
-1499 2636 0
-1500 2637 0
-1726 -1748 -1770 0
-1731 -1948 -1970 0
-1753 -1953 -2104 0
-1775 -1975 -2109 0
-1596 -1659 -1681 0
-1596 -1681 -1726 -1827 0
-1596 -1681 -1827 -1886 0
-1596 -1681 -1820 0
-1596 -1849 -1915 0
-1596 -1842 -1903 0
-1596 -1842 -1948 -2027 0
-1596 -1842 -2027 -2064 0
-1596 -1842 -2020 0
-1659 -1681 -1703 0
-1681 -1703 -1726 -1827 0
-1681 -1703 -1827 -1886 0
-1681 -1703 -1820 0
-1703 -1849 -1915 0
-1703 -1842 -1903 0
-1703 -1842 -1948 -2027 0
-1703 -1842 -2027 -2064 0
-1703 -1842 -2020 0
-1871 -1903 -1937 0
-1871 -1937 -1948 -2027 0
-1871 -1937 -2027 -2064 0
-1871 -1937 -2020 0
-1752 -1974 -2130 0
-1573 -1707 -1820 0
-1774 -1996 -2081 0
-1550 -1685 -1929 0
-1796 -1903 -1925 0
-1663 -1907 -2085 0
-1775 -1975 -2130 0
-1726 -1907 -2085 0
-1596 -1791 -1975 -2130 0
-1726 -1907 -2096 -2130 0
-1595 -1791 -1975 -2130 0
-1726 -1907 -2037 -2096 0
-1774 -1975 -2130 0
-1726 -1907 -1970 0
-1858 -1991 -2130 0
-1726 -1918 -1985 0
-1753 -1974 -2130 0
-1726 -1748 -1929 0
-1573 -1769 -1974 -2130 0
-1726 -1748 -1940 -1996 0
-1572 -1769 -1974 -2130 0
-1726 -1748 -1859 -1940 0
-1596 -1791 -1975 -2109 0
-1663 -1907 -2096 -2130 0
-1595 -1791 -1975 -2109 0
-1663 -1907 -2037 -2096 0
-1774 -1975 -2109 0
-1663 -1907 -1970 0
-1858 -1991 -2109 0
-1663 -1918 -1985 0
-1753 -1974 -2109 0
-1663 -1748 -1929 0
-1573 -1769 -1974 -2109 0
-1663 -1748 -1940 -1996 0
-1572 -1769 -1974 -2109 0
-1663 -1748 -1859 -1940 0
-1752 -1974 -2109 0
-1663 -1748 -1770 0
-1753 -2036 -2125 0
-1674 -1763 -1929 0
-1573 -1769 -2036 -2125 0
-1674 -1763 -1940 -1996 0
-1572 -1769 -2036 -2125 0
-1674 -1763 -1859 -1940 0
-1752 -2036 -2125 0
-1674 -1763 -1770 0
-1727 -1748 -1770 0
-1534 -1550 -1707 0
-1864 -1903 -1925 0
-1864 -1925 -1948 -2027 0
-1864 -1925 -2027 -2064 0
-1864 -1925 -2020 0
-1864 -2049 -2093 0
-1706 -1842 -2020 0
-1752 -1974 -2158 0
-1796 -2042 -2081 0
-1731 -1952 -2104 0
-1753 -1953 -2108 0
-1531 -1685 -1929 0
-1573 -1769 -1953 -2108 0
-1531 -1685 -1940 -1996 0
-1572 -1769 -1953 -2108 0
-1531 -1685 -1859 -1940 0
-1752 -1953 -2108 0
-1531 -1685 -1770 0
-1836 -1969 -2108 0
-1531 -1696 -1785 0
-1875 -1903 -1937 0
-1875 -1937 -1948 -2027 0
-1875 -1937 -2027 -2064 0
-1875 -1937 -2020 0
-1753 -2036 -2118 0
-1672 -1763 -1929 0
-1573 -1769 -2036 -2118 0
-1672 -1763 -1940 -1996 0
-1572 -1769 -2036 -2118 0
-1672 -1763 -1859 -1940 0
-1752 -2036 -2118 0
-1672 -1763 -1770 0
-1823 -1970 0
-1823 -1867 -1915 0
-1770 -1823 -1915 0
-1823 -1838 -1867 -1903 0
-1948 -1970 0
-1727 -1831 -1970 0
-1727 -1831 -1867 -1915 0
-1727 -1770 -1831 -1915 0
-1727 -1831 -1838 -1867 -1903 0
-1953 -2104 0
-1738 -1948 -1970 0
-1738 -1823 -1970 0
-1738 -1823 -1867 -1915 0
-1738 -1770 -1823 -1915 0
-1738 -1823 -1838 -1867 -1903 0
-1727 -1867 0
-1727 -1770 0
-1727 -1845 0
-1727 -1842 -1845 -1867 0
-1727 -1845 -1860 -1925 0
-1727 -1845 -1937 0
-1727 -1970 0
-1727 -1867 -1915 0
-1727 -1770 -1915 0
-1727 -1838 -1867 -1903 0
-1727 -1760 -1867 0
-1727 -1760 -1770 0
-1727 -1749 -1853 0
-1727 -1749 -1842 -1853 -1867 0
-1727 -1749 -1853 -1860 -1925 0
-1727 -1749 -1853 -1937 0
-1727 -1886 -1948 -1970 0
-1831 -1953 -2104 0
-1831 -1948 -1970 0
-1831 -1886 -1970 0
-1831 -1867 -1886 -1915 0
-1770 -1831 -1886 -1915 0
-1831 -1838 -1867 -1886 -1903 0
-1550 -1642 -1948 -1970 0
-1550 -1642 -1823 -1970 0
-1550 -1642 -1823 -1867 -1915 0
-1550 -1642 -1770 -1823 -1915 0
-1550 -1642 -1823 -1838 -1867 -1903 0
-1550 -1707 0
-1550 -1867 0
-1550 -1770 0
-1550 -1696 -1707 0
-1550 -1696 -1867 0
-1550 -1696 -1770 0
-1550 -1696 -1853 -1867 0
-1550 -1664 -1948 -1970 0
-1659 -1867 0
-1659 -1770 0
-1816 -1867 -1960 0
-1770 -1816 -1960 0
-1820 -1867 0
-1770 -1820 0
-1975 -2109 0
-1867 -1903 0
-1867 -1948 -2027 0
-1867 -2027 -2064 0
-1867 -2020 0
-1760 -1953 -2104 0
-1749 -1867 -1960 0
-1749 -1770 -1960 0
-1749 -1867 0
-1749 -1770 0
-1749 -1867 -1886 -1953 0
-1749 -1770 -1886 -1953 0
-1853 -1975 -2109 0
-1853 -1953 -2104 0
-1853 -1915 0
-1842 -1853 -1867 -1915 0
-1853 -1860 -1915 -1925 0
-1853 -1915 -1937 0
-1707 -1727 -1760 0
-1707 -1727 0
-1659 -1707 0
-1707 -1816 -1960 0
-1707 -1820 0
-1690 -1707 -1975 -2109 0
-1681 -1690 -1707 -1727 0
-1659 -1681 -1690 -1707 0
-1681 -1690 -1707 -1816 -1960 0
-1681 -1690 -1707 -1820 0
-1690 -1707 -1867 -1903 -1937 0
-1690 -1707 -1867 -1937 -1948 -2027 0
-1690 -1707 -1867 -1937 -2027 -2064 0
-1690 -1707 -1867 -1937 -2020 0
-1690 -1707 -1842 -1903 0
-1690 -1707 -1842 -1948 -2027 0
-1690 -1707 -1842 -2027 -2064 0
-1690 -1707 -1842 -2020 0
-1686 -1690 -1975 -2109 0
-1686 -1690 -1867 -1903 0
-1686 -1690 -1867 -1948 -2027 0
-1686 -1690 -1867 -2027 -2064 0
-1686 -1690 -1867 -2020 0
-1664 -1690 -1867 -1886 -1982 -2027 0
-1664 -1690 -1867 -1886 -1975 -2015 0
-1681 -1727 0
-1659 -1681 0
-1681 -1816 -1960 0
-1681 -1820 0
-1842 -1903 0
-1842 -1948 -2027 0
-1842 -2027 -2064 0
-1842 -2020 0
-1867 -1903 -1937 0
-1867 -1937 -1948 -2027 0
-1867 -1937 -2027 -2064 0
-1867 -1937 -2020 0
-1903 -1925 0
-1925 -1948 -2027 0
-1925 -2027 -2064 0
-1925 -2020 0
-2049 -2093 0
-1860 -1903 -1937 0
-1860 -1937 -1948 -2027 0
-1860 -1937 -2027 -2064 0
-1860 -1937 -2020 0
-1782 -1975 -2109 0
-1782 -1867 -1903 0
-1782 -1867 -1948 -2027 0
-1782 -1867 -2027 -2064 0
-1782 -1867 -2020 0
-1876 -1903 -1925 0
-1876 -1925 -1948 -2027 0
-1876 -1925 -2027 -2064 0
-1876 -1925 -2020 0
-1876 -2049 -2093 0
-1681 -1727 -1876 0
-1659 -1681 -1876 0
-1681 -1816 -1876 -1960 0
-1681 -1820 -1876 0
-1842 -1876 -1903 0
-1842 -1876 -1948 -2027 0
-1842 -1876 -2027 -2064 0
-1842 -1876 -2020 0
-1724 -1975 -2109 0
-1681 -1724 -1727 0
-1659 -1681 -1724 0
-1681 -1724 -1816 -1960 0
-1681 -1724 -1820 0
-1724 -1842 -1903 0
-1724 -1842 -1948 -2027 0
-1724 -1842 -2027 -2064 0
-1724 -1842 -2020 0
-1724 -1867 -1903 -1937 0
-1724 -1867 -1937 -1948 -2027 0
-1724 -1867 -1937 -2027 -2064 0
-1724 -1867 -1937 -2020 0
-1724 -1903 -1925 0
-1724 -1925 -1948 -2027 0
-1724 -1925 -2027 -2064 0
-1724 -1925 -2020 0
-1724 -2049 -2093 0
-1724 -1860 -1903 -1937 0
-1724 -1860 -1937 -1948 -2027 0
-1724 -1860 -1937 -2027 -2064 0
-1724 -1860 -1937 -2020 0
-1681 -1727 -1860 -1867 0
-1659 -1681 -1860 -1867 0
-1681 -1816 -1860 -1867 -1960 0
-1681 -1820 -1860 -1867 0
-1842 -1860 -1867 -1903 0
-1842 -1860 -1867 -1948 -2027 0
-1842 -1860 -1867 -2027 -2064 0
-1842 -1860 -1867 -2020 0
-1781 -1820 0
-1774 -2087 0
-1781 -1858 -2115 0
-1665 -1985 -2087 0
-1781 -1858 -2020 0
-1752 -1985 -2087 0
-1753 -1781 -1973 -2115 0
-1665 -1912 -1929 -2087 0
-1573 -1820 0
-1774 -1996 0
-1706 -1784 -1820 0
-1774 -2094 -2158 0
-1706 -1784 -1858 -2115 0
-1665 -1985 -2094 -2158 0
-1706 -1784 -1858 -2020 0
-1752 -1985 -2094 -2158 0
-1706 -1753 -1784 -1973 -2115 0
-1665 -1912 -1929 -2094 -2158 0
-1550 -1685 0
-1796 -1925 0
-1573 -1724 -1820 0
-1774 -1996 -2164 0
-1724 -1781 -1820 0
-1774 -2087 -2164 0
-1724 -1781 -1858 -2115 0
-1665 -1985 -2087 -2164 0
-1724 -1781 -1858 -2020 0
-1752 -1985 -2087 -2164 0
-1724 -1753 -1781 -1973 -2115 0
-1665 -1912 -1929 -2087 -2164 0
-1706 -2115 0
-1665 -2158 0
-1706 -2020 0
-1752 -2158 0
-1706 -1981 0
-1909 -2158 0
-1706 -1974 -1981 -2115 0
-1665 -1748 -1909 -2158 0
-1706 -1953 -1981 -2107 0
-1668 -1685 -1909 -2158 0
-1706 -1981 -2036 0
-1763 -1909 -2158 0
-1706 -1820 0
-1774 -2158 0
-1706 -1858 -2115 0
-1665 -1985 -2158 0
-1706 -1858 -2020 0
-1752 -1985 -2158 0
-1706 -1753 -1973 -2115 0
-1665 -1912 -1929 -2158 0
-1706 -1946 -2115 0
-1665 -2030 -2158 0
-1706 -1946 -2020 0
-1752 -2030 -2158 0
-1706 -1928 -1984 0
-1916 -2024 -2158 0
-1706 -1928 -1974 -1984 -2115 0
-1665 -1748 -1916 -2024 -2158 0
-1706 -1928 -1953 -1984 -2107 0
-1668 -1685 -1916 -2024 -2158 0
-1706 -1928 -1984 -2036 0
-1763 -1916 -2024 -2158 0
-1573 -1595 -1706 -1820 0
-1774 -1996 -2037 -2158 0
-1550 -1685 -1784 0
-1796 -1925 -2094 0
-1573 -1784 -1820 0
-1774 -1996 -2094 0
-1595 -1784 -1820 0
-1774 -2037 -2094 0
-1595 -1784 -1858 -2115 0
-1665 -1985 -2037 -2094 0
-1595 -1784 -1858 -2020 0
-1752 -1985 -2037 -2094 0
-1595 -1753 -1784 -1973 -2115 0
-1665 -1912 -1929 -2037 -2094 0
-1573 -1618 -1796 -1820 0
-1774 -1996 -2104 -2149 0
-1618 -1781 -1796 -1820 0
-1774 -2087 -2104 -2149 0
-1618 -1781 -1796 -1858 -2115 0
-1665 -1985 -2087 -2104 -2149 0
-1618 -1781 -1796 -1858 -2020 0
-1752 -1985 -2087 -2104 -2149 0
-1618 -1753 -1781 -1796 -1973 -2115 0
-1665 -1912 -1929 -2087 -2104 -2149 0
-1796 -2081 0
-1731 -2104 0
-1796 -2115 0
-1665 -2104 0
-1796 -2020 0
-1752 -2104 0
-1796 -2049 -2081 0
-1731 -1969 -2104 0
-1796 -2049 -2115 0
-1665 -1969 -2104 0
-1796 -2020 -2049 0
-1752 -1969 -2104 0
-1796 -1984 -2049 -2115 0
-1665 -1916 -1969 -2104 0
-1573 -1796 -1820 -1863 0
-1774 -1996 -2015 -2104 0
-1775 -2115 0
-1665 -2085 0
-1775 -2020 0
-1752 -2085 0
-1702 -1773 -2115 0
-1665 -2052 -2090 0
-1702 -1773 -2020 0
-1752 -2052 -2090 0
-1774 -2115 0
-1665 -1970 0
-1774 -2020 0
-1752 -1970 0
-1663 -1907 0
-1681 -1703 0
-1753 -2115 0
-1665 -1929 0
-1573 -1769 -2115 0
-1665 -1940 -1996 0
-1572 -1769 -2115 0
-1665 -1859 -1940 0
-1752 -2115 0
-1665 -1770 0
-1550 -1685 -1946 0
-1796 -1925 -2030 0
-1702 -1928 -2115 0
-1665 -2024 -2052 0
-1702 -1928 -2020 0
-1752 -2024 -2052 0
-1928 -2115 0
-1665 -2024 0
-1928 -2020 0
-1752 -2024 0
-1595 -1685 -1928 -2115 0
-1665 -1925 -2024 -2037 0
-1595 -1685 -1928 -2020 0
-1752 -1925 -2024 -2037 0
-1663 -1907 -1984 0
-1681 -1703 -1916 0
-1550 -1685 -1984 0
-1796 -1916 -1925 0
-1858 -1984 0
-1916 -1985 0
-1858 -1974 -1984 -2115 0
-1665 -1748 -1916 -1985 0
-1858 -1953 -1984 -2107 0
-1668 -1685 -1916 -1985 0
-1858 -1984 -2036 0
-1763 -1916 -1985 0
-1706 -1946 -2081 0
-1731 -2030 -2158 0
-1706 -2081 0
-1731 -2158 0
-1775 -2081 0
-1731 -2085 0
-1702 -1773 -2081 0
-1731 -2052 -2090 0
-1774 -2081 0
-1731 -1970 0
-1663 -1907 -2038 -2081 0
-1681 -1703 -1731 -1951 0
-1706 -1975 -2038 -2081 0
-1731 -1907 -1951 -2158 0
-1775 -1975 -2038 -2081 0
-1731 -1907 -1951 -2085 0
-1702 -1773 -1975 -2038 -2081 0
-1731 -1907 -1951 -2052 -2090 0
-1774 -1975 -2038 -2081 0
-1731 -1907 -1951 -1970 0
-1753 -2036 -2038 -2081 -2115 0
-1665 -1731 -1763 -1929 -1951 0
-1573 -1769 -2036 -2038 -2081 -2115 0
-1665 -1731 -1763 -1940 -1951 -1996 0
-1572 -1769 -2036 -2038 -2081 -2115 0
-1665 -1731 -1763 -1859 -1940 -1951 0
-1752 -2036 -2038 -2081 -2115 0
-1665 -1731 -1763 -1770 -1951 0
-1753 -1974 -2038 -2081 0
-1731 -1748 -1929 -1951 0
-1573 -1769 -1974 -2038 -2081 0
-1731 -1748 -1940 -1951 -1996 0
-1572 -1769 -1974 -2038 -2081 0
-1731 -1748 -1859 -1940 -1951 0
-1752 -1974 -2038 -2081 0
-1731 -1748 -1770 -1951 0
-1663 -1907 -2038 -2041 0
-1681 -1703 -1815 -1951 0
-1753 -2038 -2041 -2115 0
-1665 -1815 -1929 -1951 0
-1573 -1769 -2038 -2041 -2115 0
-1665 -1815 -1940 -1951 -1996 0
-1572 -1769 -2038 -2041 -2115 0
-1665 -1815 -1859 -1940 -1951 0
-1752 -2038 -2041 -2115 0
-1665 -1770 -1815 -1951 0
-1595 -1769 -1863 -1924 -2038 -2115 0
-1665 -1852 -1940 -1951 -2015 -2037 0
-1595 -1664 -1863 -1907 -2038 -2115 0
-1665 -1681 -1863 -1951 -2015 -2037 0
-1706 -1975 0
-1907 -2158 0
-1775 -1975 0
-1907 -2085 0
-1702 -1773 -1975 0
-1907 -2052 -2090 0
-1774 -1975 0
-1907 -1970 0
-1753 -1974 0
-1748 -1929 0
-1573 -1769 -1974 0
-1748 -1940 -1996 0
-1572 -1769 -1974 0
-1748 -1859 -1940 0
-1752 -1974 0
-1748 -1770 0
-1753 -2036 -2115 0
-1665 -1763 -1929 0
-1573 -1769 -2036 -2115 0
-1665 -1763 -1940 -1996 0
-1572 -1769 -2036 -2115 0
-1665 -1763 -1859 -1940 0
-1752 -2036 -2115 0
-1665 -1763 -1770 0
-1753 -1953 0
-1685 -1929 0
-1573 -1769 -1953 0
-1685 -1940 -1996 0
-1572 -1769 -1953 0
-1685 -1859 -1940 0
-1752 -1953 0
-1685 -1770 0
-1836 -1969 0
-1696 -1785 0
-1753 -2036 -2107 0
-1668 -1763 -1929 0
-1573 -1769 -2036 -2107 0
-1668 -1763 -1940 -1996 0
-1572 -1769 -2036 -2107 0
-1668 -1763 -1859 -1940 0
-1752 -2036 -2107 0
-1668 -1763 -1770 0
-1663 -1907 -2102 0
-1681 -1703 -1830 0
-1753 -2102 -2115 0
-1665 -1830 -1929 0
-1573 -1769 -2102 -2115 0
-1665 -1830 -1940 -1996 0
-1572 -1769 -2102 -2115 0
-1665 -1830 -1859 -1940 0
-1752 -2102 -2115 0
-1665 -1770 -1830 0
-1753 -1953 -2121 0
-1676 -1685 -1929 0
-1573 -1769 -1953 -2121 0
-1676 -1685 -1940 -1996 0
-1572 -1769 -1953 -2121 0
-1676 -1685 -1859 -1940 0
-1752 -1953 -2121 0
-1676 -1685 -1770 0
-1836 -1969 -2121 0
-1676 -1696 -1785 0
-1706 -1975 -2121 0
-1676 -1907 -2158 0
-1775 -1975 -2121 0
-1676 -1907 -2085 0
-1702 -1773 -1975 -2121 0
-1676 -1907 -2052 -2090 0
-1774 -1975 -2121 0
-1676 -1907 -1970 0
-1753 -1974 -2121 0
-1676 -1748 -1929 0
-1573 -1769 -1974 -2121 0
-1676 -1748 -1940 -1996 0
-1572 -1769 -1974 -2121 0
-1676 -1748 -1859 -1940 0
-1752 -1974 -2121 0
-1676 -1748 -1770 0
-1663 -1907 -2164 0
-1681 -1703 -1738 0
-1706 -1975 -2164 0
-1738 -1907 -2158 0
-1775 -1975 -2164 0
-1738 -1907 -2085 0
-1702 -1773 -1975 -2164 0
-1738 -1907 -2052 -2090 0
-1774 -1975 -2164 0
-1738 -1907 -1970 0
-1753 -1974 -2164 0
-1738 -1748 -1929 0
-1573 -1769 -1974 -2164 0
-1738 -1748 -1940 -1996 0
-1572 -1769 -1974 -2164 0
-1738 -1748 -1859 -1940 0
-1752 -1974 -2164 0
-1738 -1748 -1770 0
-1753 -2036 -2115 -2164 0
-1665 -1738 -1763 -1929 0
-1573 -1769 -2036 -2115 -2164 0
-1665 -1738 -1763 -1940 -1996 0
-1572 -1769 -2036 -2115 -2164 0
-1665 -1738 -1763 -1859 -1940 0
-1752 -2036 -2115 -2164 0
-1665 -1738 -1763 -1770 0
-1753 -1953 -2164 0
-1685 -1738 -1929 0
-1573 -1769 -1953 -2164 0
-1685 -1738 -1940 -1996 0
-1572 -1769 -1953 -2164 0
-1685 -1738 -1859 -1940 0
-1752 -1953 -2164 0
-1685 -1738 -1770 0
-1836 -1969 -2164 0
-1696 -1738 -1785 0
-1753 -2036 -2107 -2164 0
-1668 -1738 -1763 -1929 0
-1573 -1769 -2036 -2107 -2164 0
-1668 -1738 -1763 -1940 -1996 0
-1572 -1769 -2036 -2107 -2164 0
-1668 -1738 -1763 -1859 -1940 0
-1752 -2036 -2107 -2164 0
-1668 -1738 -1763 -1770 0
-1706 -1975 -2107 -2115 0
-1665 -1668 -1907 -2158 0
-1775 -1975 -2107 -2115 0
-1665 -1668 -1907 -2085 0
-1702 -1773 -1975 -2107 -2115 0
-1665 -1668 -1907 -2052 -2090 0
-1774 -1975 -2107 -2115 0
-1665 -1668 -1907 -1970 0
-1753 -1974 -2107 -2115 0
-1665 -1668 -1748 -1929 0
-1573 -1769 -1974 -2107 -2115 0
-1665 -1668 -1748 -1940 -1996 0
-1572 -1769 -1974 -2107 -2115 0
-1665 -1668 -1748 -1859 -1940 0
-1752 -1974 -2107 -2115 0
-1665 -1668 -1748 -1770 0
-1684 -1727 -1929 0
-1659 -1684 -1929 0
-1684 -1816 -1929 -1960 0
-1684 -1820 -1929 0
-1706 -1903 -2046 0
-1753 -1949 -2158 0
-1775 -1903 -2046 0
-1753 -1949 -2085 0
-1702 -1773 -1903 -2046 0
-1753 -1949 -2052 -2090 0
-1774 -1903 -2046 0
-1753 -1949 -1970 0
-1858 -1933 -2081 0
-1858 -1933 -2154 0
-1843 -1903 0
-1843 -1876 -1903 0
-1843 -1860 -1863 -1903 0
-1843 -1941 -2081 0
-1843 -1941 -2154 0
-1843 -2020 0
-1843 -1876 -2020 0
-1843 -1860 -1863 -2020 0
-1684 -1727 0
-1684 -1727 -1876 0
-1684 -1727 -1860 -1863 0
-1684 -1727 -1782 0
-1684 -1727 -1782 -1860 -1870 0
-1684 -1727 -1782 -1876 0
-1684 -1727 -1771 -1860 0
-1684 -1727 -1771 -1863 -1876 0
-1684 -1727 -1860 -1933 0
-1684 -2104 0
-1684 -1960 -2104 0
-1684 -2036 -2104 0
-1684 -2036 -2064 0
-1659 -1684 0
-1659 -1684 -1876 0
-1659 -1684 -1860 -1863 0
-1659 -1684 -1782 0
-1659 -1684 -1782 -1860 -1870 0
-1659 -1684 -1782 -1876 0
-1659 -1684 -1771 -1860 0
-1659 -1684 -1771 -1863 -1876 0
-1659 -1684 -1860 -1933 0
-1684 -1816 -1960 0
-1684 -1816 -1876 -1960 0
-1684 -1816 -1860 -1863 -1960 0
-1684 -1782 -1816 -1960 0
-1684 -1782 -1816 -1860 -1870 -1960 0
-1684 -1782 -1816 -1876 -1960 0
-1684 -1771 -1816 -1860 -1960 0
-1684 -1771 -1816 -1863 -1876 -1960 0
-1684 -1816 -1860 -1933 -1960 0
-1684 -1820 0
-1684 -1820 -1876 0
-1684 -1820 -1860 -1863 0
-1684 -1782 -1820 0
-1684 -1782 -1820 -1860 -1870 0
-1684 -1782 -1820 -1876 0
-1684 -1771 -1820 -1860 0
-1684 -1771 -1820 -1863 -1876 0
-1684 -1820 -1860 -1933 0
-1684 -1820 -1908 -2104 0
-1595 -1711 -2042 -2081 0
-1595 -1711 -2042 -2154 0
-2042 -2081 0
-2042 -2154 0
-1771 -1903 0
-1771 -2020 0
-1876 -2042 -2081 0
-1876 -2042 -2154 0
-1719 -1843 -1876 -1903 0
-1719 -1843 -1876 -2020 0
-1719 -2042 -2081 0
-1719 -2042 -2154 0
-1686 -1719 -1876 -1903 0
-1686 -1719 -1876 -2020 0
-1618 -1843 -1860 -1903 0
-1618 -1843 -1860 -2020 0
-1618 -1686 -1860 -1903 0
-1618 -1686 -1860 -2020 0
-1782 -1870 -1903 0
-1782 -1870 -2020 0
-1731 -1985 -2026 0
-1707 -1754 -1915 0
-1730 -1985 -2026 0
-1537 -1754 -1915 0
-1753 -1978 0
-1914 -1929 0
-1753 -1978 -2121 0
-1676 -1914 -1929 0
-1753 -1978 -2015 -2107 0
-1664 -1668 -1914 -1929 0
-1731 -1978 -2029 0
-1707 -1761 -1914 0
-1730 -1978 -2029 0
-1537 -1761 -1914 0
-1752 -1978 0
-1770 -1914 0
-1752 -1978 -2121 0
-1676 -1770 -1914 0
-1752 -1978 -2015 -2107 0
-1664 -1668 -1770 -1914 0
-1706 -2046 0
-1949 -2158 0
-1706 -2046 -2121 0
-1676 -1949 -2158 0
-1706 -2015 -2046 -2107 0
-1664 -1668 -1949 -2158 0
-1706 -2046 -2102 0
-1830 -1949 -2158 0
-1706 -2046 -2102 -2107 -2110 0
-1667 -1668 -1830 -1949 -2158 0
-1706 -2046 -2102 -2121 0
-1676 -1830 -1949 -2158 0
-1706 -2046 -2084 -2107 0
-1668 -1824 -1949 -2158 0
-1706 -2015 -2046 -2084 -2121 0
-1664 -1676 -1824 -1949 -2158 0
-1706 -2026 -2046 -2107 0
-1668 -1754 -1949 -2158 0
-1550 -2046 0
-1796 -1949 0
-1550 -1702 -2046 0
-1796 -1949 -2052 0
-1550 -1763 -2046 0
-1796 -1937 -1949 0
-1572 -1763 -2046 0
-1859 -1937 -1949 0
-1775 -2046 0
-1949 -2085 0
-1775 -2046 -2121 0
-1676 -1949 -2085 0
-1775 -2015 -2046 -2107 0
-1664 -1668 -1949 -2085 0
-1775 -2046 -2102 0
-1830 -1949 -2085 0
-1775 -2046 -2102 -2107 -2110 0
-1667 -1668 -1830 -1949 -2085 0
-1775 -2046 -2102 -2121 0
-1676 -1830 -1949 -2085 0
-1775 -2046 -2084 -2107 0
-1668 -1824 -1949 -2085 0
-1775 -2015 -2046 -2084 -2121 0
-1664 -1676 -1824 -1949 -2085 0
-1775 -2026 -2046 -2107 0
-1668 -1754 -1949 -2085 0
-1702 -1773 -2046 0
-1949 -2052 -2090 0
-1702 -1773 -2046 -2121 0
-1676 -1949 -2052 -2090 0
-1702 -1773 -2015 -2046 -2107 0
-1664 -1668 -1949 -2052 -2090 0
-1702 -1773 -2046 -2102 0
-1830 -1949 -2052 -2090 0
-1702 -1773 -2046 -2102 -2107 -2110 0
-1667 -1668 -1830 -1949 -2052 -2090 0
-1702 -1773 -2046 -2102 -2121 0
-1676 -1830 -1949 -2052 -2090 0
-1702 -1773 -2046 -2084 -2107 0
-1668 -1824 -1949 -2052 -2090 0
-1702 -1773 -2015 -2046 -2084 -2121 0
-1664 -1676 -1824 -1949 -2052 -2090 0
-1702 -1773 -2026 -2046 -2107 0
-1668 -1754 -1949 -2052 -2090 0
-1774 -2046 0
-1949 -1970 0
-1774 -2046 -2121 0
-1676 -1949 -1970 0
-1774 -2015 -2046 -2107 0
-1664 -1668 -1949 -1970 0
-1774 -2046 -2102 0
-1830 -1949 -1970 0
-1774 -2046 -2102 -2107 -2110 0
-1667 -1668 -1830 -1949 -1970 0
-1774 -2046 -2102 -2121 0
-1676 -1830 -1949 -1970 0
-1774 -2046 -2084 -2107 0
-1668 -1824 -1949 -1970 0
-1774 -2015 -2046 -2084 -2121 0
-1664 -1676 -1824 -1949 -1970 0
-1774 -2026 -2046 -2107 0
-1668 -1754 -1949 -1970 0
-1550 -1774 -1841 -2046 0
-1796 -1837 -1949 -1970 0
-1731 -1952 -2037 -2160 0
-1534 -1707 -1732 -1886 0
-1730 -1952 -2037 -2160 0
-1534 -1537 -1732 -1886 0
-1731 -1952 0
-1534 -1707 0
-1730 -1952 0
-1534 -1537 0
-1753 -2084 0
-1824 -1929 0
-1752 -2084 0
-1770 -1824 0
-1731 -1952 -2121 0
-1534 -1676 -1707 0
-1730 -1952 -2121 0
-1534 -1537 -1676 0
-1753 -1978 -2121 -2163 0
-1676 -1739 -1914 -1929 0
-1752 -1978 -2121 -2163 0
-1676 -1739 -1770 -1914 0
-1731 -1952 -2163 0
-1534 -1707 -1739 0
-1730 -1952 -2163 0
-1534 -1537 -1739 0
-1753 -2041 -2121 -2163 0
-1676 -1739 -1815 -1929 0
-1752 -2041 -2121 -2163 0
-1676 -1739 -1770 -1815 0
-1753 -1978 -2107 -2149 0
-1642 -1668 -1914 -1929 0
-1752 -1978 -2107 -2149 0
-1642 -1668 -1770 -1914 0
-1753 -2041 -2107 -2149 0
-1642 -1668 -1815 -1929 0
-1752 -2041 -2107 -2149 0
-1642 -1668 -1770 -1815 0
-1753 -2102 -2110 0
-1667 -1830 -1929 0
-1752 -2102 -2110 0
-1667 -1770 -1830 0
-1727 -1749 -1850 0
-1727 -1749 -1850 -1876 0
-1727 -1749 -1850 -1860 -1863 0
-1753 -2104 0
-1753 -1960 -2104 0
-1753 -1960 -2023 0
-1753 -1948 -2031 0
-1753 -2031 -2064 0
-1753 -2031 -2104 0
-1753 -2031 -2038 -2089 -2104 0
-1850 -1915 0
-1850 -1876 -1915 0
-1850 -1860 -1863 -1915 0
-1683 -1727 0
-1683 -1727 -1876 0
-1683 -1727 -1860 -1863 0
-1683 -1727 -2053 0
-1683 -1727 -1782 0
-1683 -1727 -1782 -1860 -1870 0
-1683 -1727 -1782 -1876 0
-1683 -1727 -1771 -1860 0
-1683 -1727 -1771 -1863 -1876 0
-1683 -1727 -1860 -1933 0
-1683 -1727 -1933 -2038 0
-1683 -2104 0
-1683 -1960 -2104 0
-1683 -1960 -2023 0
-1683 -1948 -2031 0
-1683 -2031 -2064 0
-1683 -2031 -2104 0
-1683 -2031 -2038 -2089 -2104 0
-1659 -1683 0
-1659 -1683 -1876 0
-1659 -1683 -1860 -1863 0
-1659 -1683 -2053 0
-1659 -1683 -1782 0
-1659 -1683 -1782 -1860 -1870 0
-1659 -1683 -1782 -1876 0
-1659 -1683 -1771 -1860 0
-1659 -1683 -1771 -1863 -1876 0
-1659 -1683 -1860 -1933 0
-1659 -1683 -1933 -2038 0
-1683 -1816 -1960 0
-1683 -1816 -1876 -1960 0
-1683 -1816 -1860 -1863 -1960 0
-1683 -1816 -1960 -2053 0
-1683 -1782 -1816 -1960 0
-1683 -1782 -1816 -1860 -1870 -1960 0
-1683 -1782 -1816 -1876 -1960 0
-1683 -1771 -1816 -1860 -1960 0
-1683 -1771 -1816 -1863 -1876 -1960 0
-1683 -1816 -1860 -1933 -1960 0
-1683 -1816 -1933 -1960 -2038 0
-1683 -1820 0
-1683 -1820 -1876 0
-1683 -1820 -1860 -1863 0
-1683 -1820 -2053 0
-1683 -1782 -1820 0
-1683 -1782 -1820 -1860 -1870 0
-1683 -1782 -1820 -1876 0
-1683 -1771 -1820 -1860 0
-1683 -1771 -1820 -1863 -1876 0
-1683 -1820 -1860 -1933 0
-1683 -1820 -1933 -2038 0
-1683 -1820 -1908 -2104 0
-1771 -2016 -2116 0
-1719 -1850 -1876 -1915 0
-1686 -1719 -1876 -2016 -2116 0
-1618 -1850 -1860 -1915 0
-1618 -1686 -1860 -2016 -2116 0
-1782 -1870 -2016 -2116 0
-1706 -1928 -1986 0
-1917 -2024 -2158 0
-1706 -1928 -1986 -2121 0
-1676 -1917 -2024 -2158 0
-1706 -1928 -1986 -2015 -2107 0
-1664 -1668 -1917 -2024 -2158 0
-1550 -1929 0
-1796 -1903 0
-1550 -1702 -1929 0
-1796 -1903 -2052 0
-1702 -1759 -1929 0
-1903 -1931 -2052 0
-1573 -1762 -1929 0
-1903 -1938 -1996 0
-1572 -1762 -1929 0
-1859 -1903 -1938 0
-1550 -1762 -1929 0
-1796 -1903 -1938 0
-1550 -1762 -1826 -1929 -1951 0
-1690 -1776 -1796 -1903 -1938 0
-1858 -1986 0
-1917 -1985 0
-1858 -1986 -2121 0
-1676 -1917 -1985 0
-1858 -1986 -2015 -2107 0
-1664 -1668 -1917 -1985 0
-1706 -2044 0
-1958 -2158 0
-1706 -2044 -2121 0
-1676 -1958 -2158 0
-1706 -2015 -2044 -2107 0
-1664 -1668 -1958 -2158 0
-1706 -1962 -2044 0
-1694 -1958 -2158 0
-1706 -2044 -2102 0
-1830 -1958 -2158 0
-1706 -2044 -2102 -2107 -2110 0
-1667 -1668 -1830 -1958 -2158 0
-1706 -2044 -2102 -2121 0
-1676 -1830 -1958 -2158 0
-1706 -2044 -2084 -2107 0
-1668 -1824 -1958 -2158 0
-1706 -2015 -2044 -2084 -2121 0
-1664 -1676 -1824 -1958 -2158 0
-1706 -2026 -2044 -2107 0
-1668 -1754 -1958 -2158 0
-1706 -1951 -2026 -2044 0
-1690 -1754 -1958 -2158 0
-1550 -2044 0
-1796 -1958 0
-1550 -1702 -2044 0
-1796 -1958 -2052 0
-1702 -1759 -2044 0
-1931 -1958 -2052 0
-1573 -1762 -2044 0
-1938 -1958 -1996 0
-1572 -1762 -2044 0
-1859 -1938 -1958 0
-1550 -1762 -2044 0
-1796 -1938 -1958 0
-1550 -1762 -1826 -1951 -2044 0
-1690 -1776 -1796 -1938 -1958 0
-1775 -2044 0
-1958 -2085 0
-1775 -2044 -2121 0
-1676 -1958 -2085 0
-1775 -2015 -2044 -2107 0
-1664 -1668 -1958 -2085 0
-1775 -1962 -2044 0
-1694 -1958 -2085 0
-1775 -2044 -2102 0
-1830 -1958 -2085 0
-1775 -2044 -2102 -2107 -2110 0
-1667 -1668 -1830 -1958 -2085 0
-1775 -2044 -2102 -2121 0
-1676 -1830 -1958 -2085 0
-1775 -2044 -2084 -2107 0
-1668 -1824 -1958 -2085 0
-1775 -2015 -2044 -2084 -2121 0
-1664 -1676 -1824 -1958 -2085 0
-1775 -2026 -2044 -2107 0
-1668 -1754 -1958 -2085 0
-1775 -1951 -2026 -2044 0
-1690 -1754 -1958 -2085 0
-1702 -1773 -2044 0
-1958 -2052 -2090 0
-1702 -1773 -2044 -2121 0
-1676 -1958 -2052 -2090 0
-1702 -1773 -2015 -2044 -2107 0
-1664 -1668 -1958 -2052 -2090 0
-1702 -1773 -1962 -2044 0
-1694 -1958 -2052 -2090 0
-1702 -1773 -2044 -2102 0
-1830 -1958 -2052 -2090 0
-1702 -1773 -2044 -2102 -2107 -2110 0
-1667 -1668 -1830 -1958 -2052 -2090 0
-1702 -1773 -2044 -2102 -2121 0
-1676 -1830 -1958 -2052 -2090 0
-1702 -1773 -2044 -2084 -2107 0
-1668 -1824 -1958 -2052 -2090 0
-1702 -1773 -2015 -2044 -2084 -2121 0
-1664 -1676 -1824 -1958 -2052 -2090 0
-1702 -1773 -2026 -2044 -2107 0
-1668 -1754 -1958 -2052 -2090 0
-1702 -1773 -1951 -2026 -2044 0
-1690 -1754 -1958 -2052 -2090 0
-1774 -2044 0
-1958 -1970 0
-1774 -2044 -2121 0
-1676 -1958 -1970 0
-1774 -2015 -2044 -2107 0
-1664 -1668 -1958 -1970 0
-1774 -1962 -2044 0
-1694 -1958 -1970 0
-1774 -2044 -2102 0
-1830 -1958 -1970 0
-1774 -2044 -2102 -2107 -2110 0
-1667 -1668 -1830 -1958 -1970 0
-1774 -2044 -2102 -2121 0
-1676 -1830 -1958 -1970 0
-1774 -2044 -2084 -2107 0
-1668 -1824 -1958 -1970 0
-1774 -2015 -2044 -2084 -2121 0
-1664 -1676 -1824 -1958 -1970 0
-1774 -2026 -2044 -2107 0
-1668 -1754 -1958 -1970 0
-1774 -1951 -2026 -2044 0
-1690 -1754 -1958 -1970 0
-1550 -1774 -1841 -2044 0
-1796 -1837 -1958 -1970 0
-1680 -1751 -2084 0
-1824 -1874 -1934 0
-1858 -1986 -2121 -2163 0
-1676 -1739 -1917 -1985 0
-1680 -1751 -2041 -2121 -2163 0
-1676 -1739 -1815 -1874 -1934 0
-1858 -1986 -2107 -2149 0
-1642 -1668 -1917 -1985 0
-1680 -1751 -2041 -2107 -2149 0
-1642 -1668 -1815 -1874 -1934 0
-1680 -1751 -2102 -2110 0
-1667 -1830 -1874 -1934 0
-1687 -1975 -2105 0
-1662 -1907 -2045 0
-1681 -1868 -1959 0
-1753 -2036 -2120 0
-1687 -1849 -2036 -2120 0
-1673 -1763 -1929 0
-1872 -1903 -1937 0
-1673 -1763 -1991 -2045 0
-1872 -1918 -1937 -1959 0
-1820 -1969 -2108 0
-1760 -1820 -1969 -2108 0
-1749 -1915 -1969 -2108 0
-1749 -1908 -1954 -2108 0
-1753 -1969 -2108 0
-1753 -2108 0
-1753 -2036 -2108 0
-1753 -2036 -2089 0
-1753 -2021 -2053 0
-1753 -2021 0
-1753 -2021 -2097 0
-1687 -2154 0
-1687 -1975 0
-1687 -1975 -2038 -2154 0
-1687 -1975 -2124 0
-1687 -1975 -2170 0
-1687 -2053 -2154 0
-1687 -2053 -2082 0
-1687 -1837 -1915 0
-1687 -1849 -1969 -2108 0
-1687 -1849 -2108 0
-1687 -1849 -2036 -2108 0
-1687 -1849 -2036 -2089 0
-1687 -1849 -2021 -2053 0
-1687 -1849 -2021 0
-1687 -1849 -2021 -2097 0
-1687 -1837 -1876 -1915 0
-1687 -1941 -2154 0
-1687 -1837 -1860 -1863 -1915 0
-1687 -1863 -2021 -2038 0
-1687 -1863 -1908 -2038 0
-1687 -1863 -1908 -2038 -2124 0
-1849 -1915 0
-1771 -1837 -1915 0
-1849 -1860 -1870 -1915 0
-1849 -1876 -1915 0
-1659 -1682 -1782 0
-1682 -1782 -1820 0
-1659 -1682 -1719 -1771 -1860 0
-1682 -1719 -1771 -1820 -1860 0
-1659 -1682 -1719 -1876 0
-1682 -1719 -1820 -1876 0
-1686 -1719 -1837 -1876 -1915 0
-1618 -1659 -1682 -1771 -1876 0
-1618 -1659 -1682 -1860 0
-1618 -1682 -1771 -1820 -1876 0
-1618 -1682 -1820 -1860 0
-1618 -1711 -1849 -1915 0
-1618 -1686 -1837 -1860 -1915 0
-1719 -1849 -1915 0
-1782 -1837 -1870 -1915 0
-1531 -1696 -1774 0
-1864 -1970 -2049 0
-1531 -1696 -1774 -1946 0
-1864 -1970 -2030 -2049 0
-1531 -1696 -1858 -1928 0
-1864 -1985 -2024 -2049 0
-1531 -1689 -1841 -1928 0
-1837 -1864 -2024 -2048 0
-1531 -1696 -1929 0
-1864 -1903 -2049 0
-1531 -1929 0
-1864 -1903 0
-1531 -1763 -1929 0
-1864 -1903 -1937 0
-1763 -1826 -1929 0
-1776 -1903 -1937 0
-1756 -1929 -1962 0
-1694 -1903 -1936 0
-1756 -1929 0
-1903 -1936 0
-1756 -1829 -1929 0
-1783 -1903 -1936 0
-1730 -2045 0
-1537 -1959 0
-1907 -2045 0
-1681 -1959 0
-1730 -1907 -1951 -2045 0
-1537 -1681 -1690 -1959 0
-1677 -1907 -2045 0
-1681 -1878 -1959 0
-1741 -1907 -2045 0
-1681 -1715 -1959 0
-1730 -1962 -2045 0
-1537 -1694 -1959 0
-1818 -1962 -2045 0
-1694 -1779 -1959 0
-1858 -1908 -2045 0
-1841 -1959 -1985 0
-1531 -1696 -1991 -2045 0
-1864 -1918 -1959 -2049 0
-1531 -1991 -2045 0
-1864 -1918 -1959 0
-1531 -1763 -1991 -2045 0
-1864 -1918 -1937 -1959 0
-1763 -1826 -1991 -2045 0
-1776 -1918 -1937 -1959 0
-1756 -1962 -1991 -2045 0
-1694 -1918 -1936 -1959 0
-1756 -1991 -2045 0
-1918 -1936 -1959 0
-1756 -1829 -1991 -2045 0
-1783 -1918 -1936 -1959 0
-1858 -1908 -2045 -2121 0
-1676 -1841 -1959 -1985 0
-1730 -2029 -2045 0
-1537 -1761 -1959 0
-1858 -1908 -2015 -2045 -2107 0
-1664 -1668 -1841 -1959 -1985 0
-1756 -1951 -2015 -2045 0
-1664 -1690 -1936 -1959 0
-1841 -1951 -2015 -2045 0
-1664 -1690 -1837 -1959 0
-1677 -1841 -1951 -2015 -2045 0
-1664 -1690 -1837 -1878 -1959 0
-1858 -1991 0
-1918 -1985 0
-1858 -1908 -2084 0
-1824 -1841 -1985 0
-1858 -1991 -2107 -2110 0
-1667 -1668 -1918 -1985 0
-1858 -1991 -2121 0
-1676 -1918 -1985 0
-1775 -2040 -2102 0
-1830 -1957 -2085 0
-1774 -2040 -2102 0
-1830 -1957 -1970 0
-1775 -2040 -2084 -2107 -2163 0
-1668 -1739 -1824 -1957 -2085 0
-1774 -2040 -2084 -2107 -2163 0
-1668 -1739 -1824 -1957 -1970 0
-1775 -2040 -2121 -2163 0
-1676 -1739 -1957 -2085 0
-1774 -2040 -2121 -2163 0
-1676 -1739 -1957 -1970 0
-1858 -1908 -2041 -2121 -2163 0
-1676 -1739 -1815 -1841 -1985 0
-1775 -2040 -2084 -2121 -2149 0
-1642 -1676 -1824 -1957 -2085 0
-1775 -2040 -2107 -2149 0
-1642 -1668 -1957 -2085 0
-1774 -2040 -2084 -2121 -2149 0
-1642 -1676 -1824 -1957 -1970 0
-1774 -2040 -2107 -2149 0
-1642 -1668 -1957 -1970 0
-1858 -1991 -2149 -2160 0
-1642 -1732 -1918 -1985 0
-1858 -1908 -2041 -2107 -2149 0
-1642 -1668 -1815 -1841 -1985 0
-1858 -1991 -2163 0
-1739 -1918 -1985 0
-1858 -1908 -2102 -2110 0
-1667 -1830 -1841 -1985 0
-1726 -1847 -1875 0
-1726 -1847 0
-1726 -1847 -1861 -1866 0
-1550 -1866 0
-1550 -1699 -1866 0
-1550 -1699 -1778 -1875 0
-1550 -1699 -1779 -1875 0
-1778 -2106 0
-1778 -2020 0
-1778 -1935 -1996 -2106 0
-1778 -1935 -1996 -2020 0
-1659 -1866 0
-1820 -1866 0
-1759 -1866 0
-1738 -1759 -1866 0
-1659 -1682 -1687 -1866 0
-1682 -1687 -1820 -1866 0
-1687 -1875 -2106 0
-1687 -1875 -2020 0
-1687 -2130 0
-1687 -2106 0
-1687 -2020 0
-1687 -1980 0
-1687 -1886 -1954 -1980 0
-1687 -1980 -2036 0
-1687 -1988 -2106 0
-1687 -2058 -2130 0
-1687 -2058 -2082 0
-1687 -1996 0
-1687 -1996 -2170 0
-1687 -1996 -2041 -2106 0
-1687 -1996 -2020 -2041 0
-1687 -1935 -1996 -2106 0
-1687 -1935 -1996 -2020 0
-1659 -1687 -1785 0
-1687 -1785 -1820 0
-1687 -1749 -1785 0
-1687 -1866 -1935 -2106 0
-1687 -1866 -1935 -2020 0
-1687 -1861 -1866 -2106 0
-1687 -1861 -1866 -2020 0
-1687 -1931 -1976 -2130 0
-1687 -1931 -1935 -2106 0
-1687 -1931 -1935 -2130 0
-1687 -1931 -1935 -2020 0
-1749 -1866 0
-1866 -2106 0
-1866 -2020 0
-1856 -1866 -2106 0
-1856 -1866 -2020 0
-1659 -1856 -1866 0
-1820 -1856 -1866 0
-1659 -1778 -1875 0
-1778 -1820 -1875 0
-1749 -1778 -1875 0
-1596 -1972 -2118 0
-1672 -1910 -2130 0
-1596 -1972 0
-1910 -2130 0
-1596 -1972 -2111 -2114 0
-1661 -1669 -1910 -2130 0
-1796 -2114 0
-1661 -2104 0
-1796 -2056 -2114 0
-1661 -1968 -2104 0
-1796 -2056 -2092 -2118 0
-1672 -1821 -1968 -2104 0
-1796 -2056 -2082 -2118 0
-1672 -1818 -1968 -2104 0
-1666 -2092 0
-1821 -1869 0
-1752 -2092 0
-1770 -1821 0
-1666 -1948 -2017 -2092 0
-1573 -1755 -1821 -1869 0
-1752 -1948 -2017 -2092 0
-1573 -1755 -1770 -1821 0
-1775 -2114 0
-1661 -2085 0
-1774 -2114 0
-1661 -1970 0
-1931 -2114 0
-1661 -2023 0
-1724 -1931 -2114 0
-1661 -2023 -2164 0
-1775 -2040 -2045 -2114 0
-1661 -1957 -1959 -2085 0
-1774 -2040 -2045 -2114 0
-1661 -1957 -1959 -1970 0
-1666 -2045 -2118 0
-1672 -1869 -1959 0
-1752 -2045 -2118 0
-1672 -1770 -1959 0
-1726 -2045 0
-1596 -1959 0
-1666 -2045 0
-1869 -1959 0
-1752 -2045 0
-1770 -1959 0
-1905 -2045 0
-1844 -1959 0
-1595 -1689 -1905 -2045 0
-1844 -1959 -2037 -2048 0
-1763 -1905 -2045 0
-1844 -1937 -1959 0
-1666 -1922 -2045 0
-1857 -1869 -1959 0
-1726 -1963 -2045 0
-1596 -1693 -1959 0
-1818 -1963 -2045 0
-1693 -1779 -1959 0
-1948 -2045 0
-1573 -1959 0
-1741 -1948 -2045 0
-1573 -1715 -1959 0
-1666 -1815 -1948 -2045 0
-1573 -1686 -1869 -1959 0
-1752 -1815 -1948 -2045 0
-1573 -1686 -1770 -1959 0
-1666 -1948 -2017 -2045 0
-1573 -1755 -1869 -1959 0
-1752 -1948 -2017 -2045 0
-1573 -1755 -1770 -1959 0
-1775 -2045 -2093 0
-1836 -1959 -2085 0
-1774 -2045 -2093 0
-1836 -1959 -1970 0
-1928 -2045 -2093 0
-1836 -1959 -2024 0
-1666 -2017 -2045 -2114 0
-1661 -1755 -1869 -1959 0
-1752 -2017 -2045 -2114 0
-1661 -1755 -1770 -1959 0
-1666 -2045 -2111 -2114 0
-1661 -1669 -1869 -1959 0
-1752 -2045 -2111 -2114 0
-1661 -1669 -1770 -1959 0
-1726 -1911 -2023 -2045 0
-1596 -1759 -1848 -1959 0
-1666 -2017 -2023 -2045 0
-1755 -1759 -1869 -1959 0
-1726 -2017 -2023 -2045 0
-1596 -1755 -1759 -1959 0
-1752 -2017 -2023 -2045 0
-1755 -1759 -1770 -1959 0
-1928 -2114 0
-1661 -2024 0
-1666 -2114 0
-1661 -1869 0
-1752 -2114 0
-1661 -1770 0
-1666 -1990 -2114 0
-1661 -1869 -1921 0
-1752 -1990 -2114 0
-1661 -1770 -1921 0
-1775 -1990 -2114 0
-1661 -1921 -2085 0
-1774 -1990 -2114 0
-1661 -1921 -1970 0
-1775 -2092 -2118 0
-1672 -1821 -2085 0
-1774 -2092 -2118 0
-1672 -1821 -1970 0
-1928 -2092 -2118 0
-1672 -1821 -2024 0
-1534 -1550 0
-1534 -1550 -1785 0
-1534 -1550 -1875 0
-1534 -1550 -1774 -1779 -1875 0
-1774 -2130 0
-1774 -2106 0
-1774 -1980 0
-1774 -1886 -1954 -1980 0
-1774 -1988 -2106 0
-1774 -2058 -2130 0
-1774 -2058 -2082 0
-1774 -2043 0
-1774 -2043 -2170 0
-1774 -2041 -2043 -2106 0
-1659 -1693 -1779 0
-1693 -1779 -1820 0
-1775 -2130 0
-1775 -2106 0
-1775 -1980 0
-1775 -1886 -1954 -1980 0
-1775 -1988 -2106 0
-1775 -2058 -2130 0
-1775 -2058 -2082 0
-1775 -2043 0
-1775 -2043 -2170 0
-1775 -2041 -2043 -2106 0
-1659 -1693 -1711 -1785 0
-1693 -1711 -1785 -1820 0
-1796 -2042 0
-1952 -2104 0
-1796 -2042 -2093 0
-1836 -1952 -2104 0
-1796 -2042 -2118 0
-1672 -1952 -2104 0
-1796 -1970 -2042 -2082 -2118 0
-1672 -1818 -1820 -1952 -2104 0
-1726 -1970 0
-1596 -1820 0
-1666 -1970 0
-1820 -1869 0
-1905 -1970 0
-1820 -1844 0
-1595 -1689 -1905 -1970 0
-1820 -1844 -2037 -2048 0
-1666 -1922 -1970 0
-1820 -1857 -1869 0
-1726 -1963 -1970 0
-1596 -1693 -1820 0
-1818 -1963 -1970 0
-1956 -1970 0
-1692 -1820 0
-1741 -1956 -1970 0
-1692 -1715 -1820 0
-1666 -1815 -1956 -1970 0
-1686 -1692 -1820 -1869 0
-1818 -1963 -2085 0
-1726 -2085 0
-1596 -1659 0
-1666 -2085 0
-1659 -1869 0
-1905 -2085 0
-1659 -1844 0
-1595 -1689 -1905 -2085 0
-1659 -1844 -2037 -2048 0
-1666 -1922 -2085 0
-1659 -1857 -1869 0
-1726 -1963 -2085 0
-1596 -1659 -1693 0
-1956 -2085 0
-1659 -1692 0
-1741 -1956 -2085 0
-1659 -1692 -1715 0
-1666 -1815 -1956 -2085 0
-1659 -1686 -1692 -1869 0
-1775 -2058 -2093 -2160 0
-1732 -1836 -1963 -2085 0
-1774 -2058 -2093 -2160 0
-1732 -1836 -1963 -1970 0
-1531 -1534 0
-1531 -1534 -1785 0
-1531 -1534 -1877 0
-1531 -1534 -1718 0
-1531 -1534 -1718 -1877 0
-2043 -2105 0
-1877 -1935 -2027 -2064 0
-1877 -1935 -2016 -2116 0
-1778 -2027 -2064 0
-1778 -2016 -2116 0
-1778 -1935 -2027 -2043 -2064 0
-1778 -1935 -2016 -2043 -2116 0
-1778 -1943 -2105 0
-1785 -2043 -2105 0
-1785 -1931 -2105 0
-1839 -1877 -1915 -1935 0
-1931 -2105 0
-1591 -1659 -1693 0
-1618 -1659 -1693 -1785 -1877 0
-1659 -1693 -1703 0
-1659 -1703 0
-1703 -1760 -1914 0
-1703 -1749 0
-1703 -1749 -1954 -2064 0
-1703 -2027 -2064 0
-1703 -2016 -2116 0
-1703 -1856 -2027 -2064 0
-1703 -1856 -2016 -2116 0
-1659 -1703 -1856 0
-1703 -1856 -1886 -1914 -2026 0
-1591 -1659 -1693 -1718 0
-1864 -2042 0
-1952 -2108 0
-1864 -2042 -2093 0
-1836 -1952 -2108 0
-1864 -2042 -2123 0
-1679 -1952 -2108 0
-1864 -2042 -2161 0
-1747 -1952 -2108 0
-1864 -2042 -2123 -2161 0
-1679 -1747 -1952 -2108 0
-1662 -1956 0
-1692 -1868 0
-1572 -1769 -2017 -2123 0
-1679 -1755 -1859 -1940 0
-1680 -1751 -2017 -2123 0
-1679 -1755 -1874 -1934 0
-1572 -1769 -2092 0
-1821 -1859 -1940 0
-1680 -1751 -2092 0
-1821 -1874 -1934 0
-1572 -1769 -1956 -2017 -2092 0
-1692 -1755 -1821 -1859 -1940 0
-1680 -1751 -1956 -2017 -2092 0
-1692 -1755 -1821 -1874 -1934 0
-1662 -2034 -2092 0
-1768 -1821 -1868 0
-1662 -1956 -2093 0
-1692 -1836 -1868 0
-1662 -2023 -2093 0
-1759 -1836 -1868 0
-1858 -1977 -2017 -2123 0
-1679 -1755 -1913 -1985 0
-1662 -2023 0
-1759 -1868 0
-1775 -2058 -2086 0
-1819 -1963 -2085 0
-1775 -2058 -2093 -2123 -2149 0
-1642 -1679 -1836 -1963 -2085 0
-1775 -2058 -2109 0
-1663 -1963 -2085 0
-1775 -2109 0
-1663 -2085 0
-1843 -1946 -2109 0
-1663 -1978 -2030 0
-1928 -2109 0
-1663 -2024 0
-1572 -1689 -1928 -2109 0
-1663 -1859 -2024 -2048 0
-1572 -1769 -2109 0
-1663 -1859 -1940 0
-1680 -1751 -2109 0
-1663 -1874 -1934 0
-1572 -1769 -1990 -2109 0
-1663 -1859 -1921 -1940 0
-1680 -1751 -1990 -2109 0
-1663 -1874 -1921 -1934 0
-1775 -1990 -2109 0
-1663 -1921 -2085 0
-1595 -1754 -1843 -1990 -2109 0
-1663 -1921 -1933 -1978 -2037 0
-1775 -2058 -2086 -2161 0
-1747 -1819 -1963 -2085 0
-1702 -1773 -1996 -2105 0
-1775 -1996 -2105 0
-1662 -1948 -2052 -2090 0
-1573 -1816 -1868 -1960 0
-1662 -1948 -2085 0
-1573 -1659 -1868 0
-1531 -1685 0
-1531 -1685 -2037 -2048 0
-1531 -1685 -1976 -2037 0
-1531 -1685 -1860 -1976 -2049 0
-1823 -2022 0
-1823 -2022 -2153 -2155 0
-1738 -1823 -2022 0
-1738 -1823 -2022 -2153 -2155 0
-1731 -2025 0
-1731 -1860 -2025 -2048 0
-1831 -1886 -2022 0
-1831 -1886 -2022 -2153 -2155 0
-1778 -1935 -2048 -2105 0
-1778 -1935 -2048 -2155 0
-1702 -1773 -2105 0
-1702 -1773 -2155 0
-1702 -1773 -2083 0
-1702 -1773 -2049 -2105 0
-1702 -1773 -2049 -2155 0
-1702 -1773 -1971 -2116 0
-1702 -1773 -1971 0
-1938 -2048 -2105 0
-1938 -2048 -2155 0
-1927 -2105 0
-1927 -2155 0
-1927 -2083 0
-1775 -2105 0
-1775 -2155 0
-1775 -2083 0
-1775 -2049 -2105 0
-1775 -2049 -2155 0
-1775 -1971 -2116 0
-1775 -1971 0
-1618 -1711 -1938 -2048 -2105 0
-1618 -1711 -1938 -2048 -2155 0
-1618 -1711 -1927 -2105 0
-1618 -1711 -1927 -2155 0
-1618 -1711 -1927 -2083 0
-1618 -1659 -1773 -1860 0
-1618 -1760 -1773 -1860 -1914 0
-1618 -1749 -1773 -1860 0
-1618 -1749 -1773 -1860 -1954 -2064 0
-1659 -1778 -1871 0
-1760 -1778 -1871 -1914 0
-1749 -1778 -1871 0
-1749 -1778 -1871 -1954 -2064 0
-1864 -1925 0
-1953 -2108 0
-1864 -1886 -1925 -1954 0
-1595 -1689 -1953 -2108 0
-1864 -1886 -1911 -1925 0
-1595 -1848 -1953 -2108 0
-1864 -1911 -1925 -1969 -2107 0
-1668 -1696 -1848 -1953 -2108 0
-1758 -1781 0
-1927 -2087 0
-1545 -1734 -1758 -1781 0
-1708 -1714 -1927 -2087 0
-1724 -1758 -1781 0
-1927 -2087 -2164 0
-1545 -1724 -1734 -1758 -1781 0
-1708 -1714 -1927 -2087 -2164 0
-1707 -1750 0
-1932 -2081 0
-1707 -1750 -1954 -2107 0
-1668 -1689 -1932 -2081 0
-1595 -1758 -1784 0
-1927 -2037 -2094 0
-1545 -1595 -1734 -1758 -1784 0
-1708 -1714 -1927 -2037 -2094 0
-1662 -1954 -2017 -2092 0
-1689 -1755 -1821 -1868 0
-1734 -1954 -2017 -2092 0
-1689 -1714 -1755 -1821 0
-1662 -2052 -2090 0
-1816 -1868 -1960 0
-1734 -2052 -2090 0
-1714 -1816 -1960 0
-1822 -2052 -2090 0
-1780 -1816 -1960 0
-1662 -1969 -2052 -2090 0
-1696 -1816 -1868 -1960 0
-1734 -1969 -2052 -2090 0
-1696 -1714 -1816 -1960 0
-1680 -1906 -2052 -2090 0
-1816 -1846 -1874 -1960 0
-1906 -2052 -2090 0
-1816 -1846 -1960 0
-1662 -1954 -2031 0
-1689 -1762 -1868 0
-1734 -1954 -2031 0
-1689 -1714 -1762 0
-1662 -2022 0
-1758 -1868 0
-1734 -2022 0
-1714 -1758 0
-1822 -2022 0
-1758 -1780 0
-1662 -2085 0
-1659 -1868 0
-1734 -2085 0
-1659 -1714 0
-1822 -2085 0
-1659 -1780 0
-1662 -1969 -2085 0
-1659 -1696 -1868 0
-1734 -1969 -2085 0
-1659 -1696 -1714 0
-1680 -1906 -2085 0
-1659 -1846 -1874 0
-1906 -2085 0
-1659 -1846 0
-1662 -1954 -2031 -2149 -2160 0
-1642 -1689 -1732 -1762 -1868 0
-1734 -1954 -2031 -2149 -2160 0
-1642 -1689 -1714 -1732 -1762 0
-1662 -2022 -2149 -2160 0
-1642 -1732 -1758 -1868 0
-1734 -2022 -2149 -2160 0
-1642 -1714 -1732 -1758 0
-1822 -2022 -2149 -2160 0
-1642 -1732 -1758 -1780 0
-1775 -2090 -2107 -2149 0
-1642 -1668 -1816 -2085 0
-1843 -1946 -2090 -2107 -2149 0
-1642 -1668 -1816 -1978 -2030 0
-1928 -2090 -2107 -2149 0
-1642 -1668 -1816 -2024 0
-1572 -1689 -1928 -2090 -2107 -2149 0
-1642 -1668 -1816 -1859 -2024 -2048 0
-1775 -2092 -2125 0
-1674 -1821 -2085 0
-1843 -1946 -2092 -2125 0
-1674 -1821 -1978 -2030 0
-1928 -2092 -2125 0
-1674 -1821 -2024 0
-1572 -1689 -1928 -2092 -2125 0
-1674 -1821 -1859 -2024 -2048 0
-1573 -1718 -1727 -1796 0
-1573 -1659 -1718 -1796 0
-1706 -1996 -2104 -2161 0
-1550 -1747 -1948 -2158 0
-1775 -1996 -2104 -2161 0
-1550 -1747 -1948 -2085 0
-1825 -1847 0
-1825 -1847 -1873 0
-1727 -1828 -1847 0
-1727 -1828 -1847 -1873 0
-1738 -1825 -1847 0
-1738 -1825 -1847 -1873 0
-1727 -1847 0
-1727 -1847 -1873 0
-1727 -2022 0
-1727 -1969 -2025 0
-1828 -1847 -1886 0
-1828 -1847 -1873 -1886 0
-1914 -1969 -2104 0
-1749 -1915 -1969 -2104 0
-1702 -1914 -1969 -2104 0
-1573 -1727 0
-1573 -1659 0
-1573 -1727 -1873 0
-1573 -1659 -1873 0
-1573 -1686 -1914 -1969 -2104 0
-1573 -1718 -1727 0
-1573 -1659 -1718 0
-1573 -1718 -1727 -1873 0
-1573 -1659 -1718 -1873 0
-1573 -1727 -1773 -1778 0
-1573 -1659 -1773 -1778 0
-1702 -1773 -2154 0
-1873 -1915 -1938 0
-1873 -1938 0
-1873 -1886 -1938 -1954 0
-1873 -1938 -2116 0
-1873 -1938 -2097 0
-1618 -1727 -1787 -1873 0
-1618 -1659 -1787 -1873 0
-1618 -1760 -1787 -1873 -1914 0
-1618 -1749 -1787 -1873 0
-1618 -1749 -1787 -1873 -1954 -2064 0
-1772 -1972 0
-1910 -2088 0
-1772 -1972 -2117 0
-1675 -1910 -2088 0
-1706 -1786 -1972 0
-1910 -2095 -2158 0
-1706 -1786 -1972 -2117 0
-1675 -1910 -2095 -2158 0
-1724 -1772 -1972 0
-1910 -2088 -2164 0
-1724 -1772 -1972 -2117 0
-1675 -1910 -2088 -2164 0
-1706 -1972 0
-1910 -2158 0
-1706 -1972 -2117 0
-1675 -1910 -2158 0
-1706 -1758 0
-1927 -2158 0
-1696 -1706 -1750 0
-1932 -2049 -2158 0
-1595 -1786 -1972 0
-1910 -2037 -2095 0
-1595 -1786 -1972 -2117 0
-1675 -1910 -2037 -2095 0
-1550 -1696 -1843 0
-1796 -1978 -2049 0
-1550 -1696 -1858 -1928 0
-1796 -1985 -2024 -2049 0
-1550 -1696 -1843 -2052 0
-1796 -1960 -1978 -2049 0
-1706 -1996 0
-1948 -2158 0
-1775 -1996 0
-1948 -2085 0
-1706 -1996 -2117 0
-1675 -1948 -2158 0
-1775 -1996 -2117 0
-1675 -1948 -2085 0
-1550 -1696 -1843 -1996 -2041 0
-1796 -1815 -1948 -1978 -2049 0
-1706 -1996 -2161 0
-1747 -1948 -2158 0
-1775 -1996 -2161 0
-1747 -1948 -2085 0
-1706 -1996 -2117 -2161 0
-1675 -1747 -1948 -2158 0
-1775 -1996 -2117 -2161 0
-1675 -1747 -1948 -2085 0
-1706 -1996 -2090 -2092 0
-1816 -1821 -1948 -2158 0
-1775 -1996 -2090 -2092 0
-1816 -1821 -1948 -2085 0
-1730 -2052 -2090 0
-1537 -1816 -1960 0
-1858 -2031 -2117 0
-1675 -1762 -1985 0
-2031 -2117 0
-1675 -1762 0
-1595 -1689 -2031 -2117 0
-1675 -1762 -2037 -2048 0
-1680 -2031 -2117 0
-1675 -1762 -1874 0
-1829 -2031 -2117 0
-1675 -1762 -1783 0
-1706 -2098 -2117 -2149 0
-1642 -1675 -1832 -2158 0
-1775 -2098 -2117 -2149 0
-1642 -1675 -1832 -2085 0
-1843 -1946 -2098 -2117 -2149 0
-1642 -1675 -1832 -1978 -2030 0
-1928 -2098 -2117 -2149 0
-1642 -1675 -1832 -2024 0
-1572 -1689 -1928 -2098 -2117 -2149 0
-1642 -1675 -1832 -1859 -2024 -2048 0
-1531 -1699 -1711 -1789 -1873 0
-1531 -1699 -1718 -1778 -1873 0
-1531 -1699 -1773 0
-1531 -1699 -1773 -1873 0
-1663 -1845 0
-1663 -1845 -2037 -2048 0
-1663 -2022 0
-1663 -2022 -2150 -2160 0
-1663 -1748 0
-1663 -1748 -1873 0
-1663 -1748 -2037 -2048 0
-1663 -1748 -1944 0
-1663 -1748 -1976 -2037 0
-1663 -1969 -2025 0
-1825 -1845 0
-1825 -1845 -2037 -2048 0
-1828 -1845 -1886 0
-1828 -1845 -1886 -2037 -2048 0
-1688 -2116 -2160 0
-1688 -2104 -2161 0
-1688 -1927 -1935 -2116 -2160 0
-1688 -1927 -1935 -2104 -2161 0
-1659 -1789 -1870 0
-1864 -2056 -2101 -2117 -2160 0
-1675 -1732 -1833 -1968 -2108 0
-1864 -2056 -2092 -2117 -2161 0
-1675 -1747 -1821 -1968 -2108 0
-1864 -2056 -2090 0
-1816 -1968 -2108 0
-1864 -2056 -2090 -2117 0
-1675 -1816 -1968 -2108 0
-1703 -1981 0
-1909 -2109 0
-1703 -1886 -1954 -1981 0
-1595 -1689 -1909 -2109 0
-1703 -1758 0
-1927 -2109 0
-1703 -1729 -1732 -1758 0
-1711 -1712 -1927 -2109 0
-1703 -1842 0
-1974 -2109 0
-1703 -1842 -2117 0
-1675 -1974 -2109 0
-1703 -1842 -1886 -1954 0
-1595 -1689 -1974 -2109 0
-1703 -1842 -2035 0
-1766 -1974 -2109 0
-1703 -1842 -1886 -1911 0
-1595 -1848 -1974 -2109 0
-1696 -1703 -1750 0
-1932 -2049 -2109 0
-1772 -1981 0
-1909 -2088 0
-1772 -1886 -1954 -1981 0
-1595 -1689 -1909 -2088 0
-1595 -1786 -1981 0
-1909 -2037 -2095 0
-1595 -1786 -1886 -1954 -1981 0
-1595 -1689 -1909 -2037 -2095 0
-1680 -1732 -2047 0
-1711 -1874 -1950 0
-1550 -1747 -2047 0
-1718 -1796 -1950 0
-1680 -1732 -2017 -2022 -2047 0
-1711 -1755 -1758 -1874 -1950 0
-1550 -1747 -2017 -2022 -2047 0
-1718 -1755 -1758 -1796 -1950 0
-1775 -2101 -2110 0
-1667 -1833 -2085 0
-1974 -2116 -2159 0
-1718 -1737 -1796 0
-1699 -1711 -1737 -1789 -1873 0
-1699 -1718 -1737 -1778 -1873 0
-1699 -1718 -1737 -1796 0
-1699 -1737 -1773 0
-1699 -1737 -1773 -1796 -1862 0
-1699 -1737 -1773 -1873 0
-1550 -1718 -1796 0
-1550 -1699 -1711 -1789 -1873 0
-1550 -1699 -1718 -1778 -1873 0
-1550 -1699 -1718 -1796 0
-1550 -1699 -1773 0
-1550 -1699 -1773 -1796 -1862 0
-1550 -1699 -1773 -1873 0
-1760 -1974 -2116 -2159 0
-1778 -1935 -2048 -2116 -2159 0
-1778 -1944 -2116 -2159 0
-1659 -1718 -1796 0
-1568 -1671 -1718 -1796 0
-1688 -2116 -2159 0
-1688 -2049 -2116 -2159 0
-1688 -1935 -2048 -2116 -2159 0
-1688 -1944 -2116 -2159 0
-1659 -1682 -1688 -1718 -1796 0
-1688 -1838 -1974 -2116 -2159 0
-1688 -1838 -1915 0
-1688 -1838 -1915 -2037 -2048 0
-1688 -1848 -1974 -2116 -2159 0
-1688 -1927 -1935 -2049 -2116 -2159 0
-1927 -2116 -2159 0
-1838 -1873 -1915 -1935 0
-1796 -2049 -2082 0
-1618 -1711 -1927 -2116 -2159 0
-1680 -1728 -1748 0
-1710 -1842 -1874 0
-1709 -2104 -2161 0
-1550 -1747 -2157 0
-1709 -2056 -2101 -2117 -2160 0
-1675 -1732 -1833 -1968 -2157 0
-1709 -2056 -2092 -2117 -2161 0
-1675 -1747 -1821 -1968 -2157 0
-1709 -2056 -2104 -2161 0
-1550 -1747 -1968 -2157 0
-1709 -2056 -2090 0
-1816 -1968 -2157 0
-1709 -2056 -2090 -2104 -2113 0
-1550 -1660 -1816 -1968 -2157 0
-1709 -2056 -2090 -2117 0
-1675 -1816 -1968 -2157 0
-1796 -2104 -2161 0
-1550 -1747 -2104 0
-1796 -2056 -2101 -2117 -2160 0
-1675 -1732 -1833 -1968 -2104 0
-1796 -2056 -2092 -2117 -2161 0
-1675 -1747 -1821 -1968 -2104 0
-1796 -2056 -2104 -2161 0
-1550 -1747 -1968 -2104 0
-1796 -2056 -2090 0
-1816 -1968 -2104 0
-1796 -2056 -2090 -2104 -2113 0
-1550 -1660 -1816 -1968 -2104 0
-1796 -2056 -2090 -2117 0
-1675 -1816 -1968 -2104 0
-1680 -1728 -1748 -1946 0
-1710 -1842 -1874 -2030 0
-1680 -1728 -1954 -2017 -2092 0
-1689 -1710 -1755 -1821 -1874 0
-1680 -1728 -2035 -2092 0
-1710 -1766 -1821 -1874 0
-1775 -2104 -2161 0
-1550 -1747 -2085 0
-1880 -1930 -2104 -2161 0
-1550 -1747 -2019 -2119 0
-1680 -1728 -2047 0
-1710 -1874 -1950 0
-1680 -1728 -1969 -2047 0
-1696 -1710 -1874 -1950 0
-1680 -1728 -1954 -2017 -2047 0
-1689 -1710 -1755 -1874 -1950 0
-1680 -1728 -2035 -2047 0
-1710 -1766 -1874 -1950 0
-1775 -2040 -2047 -2104 -2161 0
-1550 -1747 -1950 -1957 -2085 0
-1680 -1728 -1748 -1973 -2047 0
-1710 -1842 -1874 -1912 -1950 0
-1858 -1973 -2047 0
-1912 -1950 -1985 0
-1858 -1886 -1954 -1973 -2047 0
-1595 -1689 -1912 -1950 -1985 0
-1680 -1728 -1748 -1976 -2047 0
-1710 -1842 -1874 -1911 -1950 0
-1680 -1728 -1969 -2017 -2022 -2047 0
-1696 -1710 -1755 -1758 -1874 -1950 0
-1680 -1728 -2022 0
-1710 -1758 -1874 0
-1858 -1973 -2017 -2117 0
-1675 -1755 -1912 -1985 0
-1818 -1969 -2104 0
-1550 -1696 -1779 0
-1680 -1728 -2022 -2149 -2160 0
-1642 -1710 -1732 -1758 -1874 0
-1537 -1737 0
-1537 -1550 0
-1537 -1659 0
-1537 -1568 -1671 0
-1537 -1659 -1694 0
-1659 -1694 -1778 0
-1694 -1854 -1915 0
-1694 -1854 -1915 -2037 -2048 0
-1694 -1848 -1969 -2159 0
-1694 -1848 -1969 -2108 0
-1694 -1848 -2159 0
-1694 -1848 -2108 0
-1694 -1848 -2088 0
-1694 -1848 -1974 0
-1694 -1848 -1974 -2124 0
-1694 -1848 -1974 -2151 -2159 0
-1694 -1848 -2022 0
-1694 -1848 -2022 -2151 -2159 0
-1694 -1848 -2022 -2124 0
-1694 -1848 -2029 -2124 -2159 0
-1694 -1848 -2029 -2113 0
-1687 -1838 -1915 0
-1687 -1838 -1915 -2037 -2048 0
-1709 -2154 0
-1730 -2157 0
-1796 -2154 0
-1730 -2104 0
-1775 -2154 0
-1730 -2085 0
-1880 -1930 -2154 0
-1730 -2019 -2119 0
-1775 -2053 -2154 0
-1730 -1962 -2085 0
-1775 -2053 -2092 0
-1821 -1962 -2085 0
-1858 -1987 -2053 0
-1920 -1962 -1985 0
-1858 -1886 -1954 -1987 -2053 0
-1595 -1689 -1920 -1962 -1985 0
-1696 -1728 -1976 -2053 0
-1710 -1911 -1962 -2049 0
-1531 -1696 -1976 -2053 0
-1864 -1911 -1962 -2049 0
-1728 -1976 -2053 0
-1710 -1911 -1962 0
-1531 -1976 -2053 0
-1864 -1911 -1962 0
-1825 -1976 -2053 0
-1772 -1911 -1962 0
-1748 -1976 -2053 0
-1842 -1911 -1962 0
-1677 -1748 -1976 -2053 0
-1842 -1878 -1911 -1962 0
-1728 -1733 -1748 -1976 -2053 0
-1710 -1713 -1842 -1911 -1962 0
-1758 -1976 -2053 0
-1911 -1927 -1962 0
-1728 -1733 -1758 -1976 -2053 0
-1710 -1713 -1911 -1927 -1962 0
-1677 -1758 -1976 -2053 0
-1878 -1911 -1927 -1962 0
-1677 -1728 -1761 -1976 -2053 0
-1710 -1878 -1911 -1941 -1962 0
-1660 -1761 -1976 -2053 0
-1862 -1911 -1941 -1962 0
-1858 -1973 -2045 0
-1912 -1959 -1985 0
-1858 -1886 -1954 -1973 -2045 0
-1595 -1689 -1912 -1959 -1985 0
-1659 -1694 -1843 0
-1659 -1694 -1843 -2037 -2048 0
-1659 -1687 -1855 0
-1659 -1687 -1855 -2037 -2048 0
-1659 -1706 0
-1659 -1694 -1706 0
-1659 -1706 -1855 0
-1659 -1706 -1855 -1944 0
-1706 -1927 0
-1706 -1927 -2124 0
-1706 -1927 -2151 -2159 0
-1706 -1915 -1927 0
-1706 -1886 -1927 -1954 0
-1659 -1706 -1841 -1927 0
-1706 -1927 -2097 0
-1775 -1978 -2053 0
-1914 -1962 -2085 0
-1775 -1886 -1954 -1978 -2053 0
-1595 -1689 -1914 -1962 -2085 0
-1775 -1989 -2045 0
-1923 -1959 -2085 0
-1775 -1886 -1954 -1989 -2045 0
-1595 -1689 -1923 -1959 -2085 0
-1775 -2158 0
-1727 -2085 0
-1775 -2053 -2158 0
-1727 -1962 -2085 0
-1775 -1989 -2158 0
-1727 -1923 -2085 0
-1775 -1989 -2035 -2158 0
-1727 -1766 -1923 -2085 0
-2022 -2158 0
-1727 -1758 0
-1677 -2022 -2158 0
-1727 -1758 -1878 0
-1728 -1733 -2022 -2158 0
-1710 -1713 -1727 -1758 0
-1858 -2022 -2158 0
-1727 -1758 -1985 0
-1595 -1689 -2022 -2158 0
-1727 -1758 -2037 -2048 0
-1775 -1837 -2022 -2158 0
-1727 -1758 -1908 -2085 0
-1829 -2022 -2158 0
-1727 -1758 -1783 0
-1914 -1969 -2159 0
-1914 -1969 -2108 0
-1923 -1954 -2159 0
-1923 -1954 -2108 0
-1687 -1691 -1914 -1969 -2159 0
-1687 -1691 -1914 -1969 -2108 0
-1687 -1691 -1923 -1954 -2159 0
-1687 -1691 -1923 -1954 -2108 0
-1694 -1914 -1969 -2159 0
-1694 -1914 -1969 -2108 0
-1694 -1923 -1954 -2159 0
-1694 -1923 -1954 -2108 0
-1687 -1842 -1908 -2088 0
-1659 -1705 0
-1705 -1760 -1914 0
-1659 -1694 -1705 0
-1659 -1705 -1856 0
-1705 -1842 0
-1705 -1842 -1886 -1954 0
-1705 -1842 -2124 0
-1705 -1842 -2097 0
-1705 -1927 0
-1705 -1927 -2124 0
-1705 -1927 -2151 -2159 0
-1705 -1886 -1927 -1954 0
-1705 -1927 -2097 0
-1696 -1728 -1843 0
-1710 -1978 -2049 0
-1531 -1696 -1843 0
-1864 -1978 -2049 0
-1689 -1728 -1855 0
-1710 -1989 -2048 0
-1531 -1689 -1855 0
-1864 -1989 -2048 0
-1696 -1728 -1843 -2039 -2045 0
-1710 -1955 -1959 -1978 -2049 0
-1531 -1696 -1843 -2039 -2045 0
-1864 -1955 -1959 -1978 -2049 0
-1689 -1728 -1855 -2039 -2045 0
-1710 -1955 -1959 -1989 -2048 0
-1531 -1689 -1855 -2039 -2045 0
-1864 -1955 -1959 -1989 -2048 0
-1696 -1728 -1843 -2053 0
-1710 -1962 -1978 -2049 0
-1531 -1696 -1843 -2053 0
-1864 -1962 -1978 -2049 0
-1689 -1728 -1855 -2053 0
-1710 -1962 -1989 -2048 0
-1531 -1689 -1855 -2053 0
-1864 -1962 -1989 -2048 0
-1825 -1841 -1974 -2045 0
-1748 -1772 -1837 -1959 0
-1775 -2156 0
-1736 -2085 0
-1843 -1946 -2156 0
-1736 -1978 -2030 0
-1775 -2053 -2156 0
-1736 -1962 -2085 0
-1775 -1990 -2156 0
-1736 -1921 -2085 0
-1974 -2156 0
-1736 -1748 0
-1595 -1689 -1974 -2156 0
-1736 -1748 -2037 -2048 0
-1677 -1974 -2156 0
-1736 -1748 -1878 0
-1829 -1974 -2156 0
-1736 -1748 -1783 0
-2022 -2156 0
-1736 -1758 0
-1677 -2022 -2156 0
-1736 -1758 -1878 0
-1728 -1733 -2022 -2156 0
-1710 -1713 -1736 -1758 0
-1595 -1689 -2022 -2156 0
-1736 -1758 -2037 -2048 0
-1829 -2022 -2156 0
-1736 -1758 -1783 0
-1914 -1969 -2157 0
-1923 -1954 -2157 0
-1687 -1691 -1914 -1969 -2157 0
-1687 -1691 -1923 -1954 -2157 0
-1694 -1914 -1969 -2157 0
-1694 -1923 -1954 -2157 0
-1696 -1737 -1843 0
-1709 -1978 -2049 0
-1689 -1737 -1855 0
-1709 -1989 -2048 0
-1696 -1737 -1843 -2039 -2045 0
-1709 -1955 -1959 -1978 -2049 0
-1689 -1737 -1855 -2039 -2045 0
-1709 -1955 -1959 -1989 -2048 0
-1696 -1737 -1843 -2053 0
-1709 -1962 -1978 -2049 0
-1689 -1737 -1855 -2053 0
-1709 -1962 -1989 -2048 0
-1974 -2130 0
-1685 -1737 0
-1685 -1737 -1796 -1862 0
-1685 -1737 -1873 0
-1685 -1737 -2037 -2048 0
-1685 -1737 -1771 -1796 0
-1685 -1737 -1933 -2041 0
-1685 -1737 -1933 -2037 0
-1685 -1737 -1944 0
-1685 -1737 -1976 -2037 0
-1668 -1685 -1974 -2130 0
-1760 -1974 -2130 0
-1702 -1974 -2130 0
-1595 -1786 -1944 -2130 0
-1927 -2130 0
-1771 -1944 -2130 0
-1842 -1862 -2048 -2130 0
-1710 -1713 -1927 -2130 0
-1726 -1748 0
-1596 -1842 0
-1709 -1925 0
-1953 -2157 0
-1709 -1925 -2104 -2113 0
-1550 -1660 -1953 -2157 0
-1709 -1925 -2117 0
-1675 -1953 -2157 0
-1709 -1886 -1925 -1954 0
-1595 -1689 -1953 -2157 0
-1709 -1925 -2084 -2104 0
-1550 -1824 -1953 -2157 0
-1709 -1815 -1925 -2026 0
-1686 -1754 -1953 -2157 0
-1709 -1886 -1925 -2026 0
-1595 -1754 -1953 -2157 0
-1709 -1925 -2035 0
-1766 -1953 -2157 0
-1709 -1886 -1911 -1925 0
-1595 -1848 -1953 -2157 0
-1726 -1748 -1860 -1925 0
-1596 -1842 -1953 -2107 0
-1726 -1748 -1946 0
-1596 -1842 -2030 0
-1726 -1748 -2052 0
-1596 -1842 -1960 0
-1726 -2035 -2037 -2095 0
-1596 -1766 -1828 -1886 0
-1726 -2022 0
-1596 -1758 0
-1726 -2035 -2084 0
-1596 -1766 -1824 0
-1726 -1954 -1974 -2113 0
-1596 -1660 -1689 -1748 0
-1726 -2022 -2151 -2159 0
-1596 -1728 -1733 -1758 0
-1736 -2022 0
-1736 -2022 -2163 0
-1736 -2029 -2113 0
-1736 -1969 -2025 0
-1736 -1969 -2025 -2041 -2130 0
-1873 -1931 -1980 0
-1873 -1886 -1931 -1954 -1980 0
-1796 -1980 0
-1796 -1886 -1954 -1980 0
-1710 -1980 0
-1710 -1886 -1954 -1980 0
-1705 -1758 0
-1927 -2156 0
-1705 -1739 -1758 0
-1719 -1927 -2156 0
-1660 -1705 -1761 0
-1862 -1941 -2156 0
-1696 -1705 -1750 0
-1932 -2049 -2156 0
-1696 -1705 -1726 -1750 -1815 0
-1596 -1686 -1932 -2049 -2156 0
-1905 -2023 -2117 0
-1675 -1759 -1844 0
-1595 -1689 -1905 -2023 -2117 0
-1675 -1759 -1844 -2037 -2048 0
-1905 -2104 0
-1550 -1844 0
-1595 -1689 -1905 -2104 0
-1550 -1844 -2037 -2048 0
-1905 -2159 0
-1728 -1844 0
-1595 -1689 -1905 -2159 0
-1728 -1844 -2037 -2048 0
-1771 -1981 0
-1771 -1886 -1954 -1981 0
-1710 -1782 -1873 -1981 0
-1710 -1782 -1873 -1886 -1954 -1981 0
-1710 -1771 -1796 -1981 0
-1710 -1771 -1796 -1886 -1954 -1981 0
-1909 -2084 0
-1824 -1845 0
-1595 -1689 -1909 -2084 0
-1824 -1845 -2037 -2048 0
-1909 -2102 -2117 -2159 0
-1675 -1728 -1830 -1845 0
-1595 -1689 -1909 -2102 -2117 -2159 0
-1675 -1728 -1830 -1845 -2037 -2048 0
-1909 -2084 -2104 -2159 0
-1550 -1728 -1824 -1845 0
-1595 -1689 -1909 -2084 -2104 -2159 0
-1550 -1728 -1824 -1845 -2037 -2048 0
-1702 -1773 -2130 0
-1702 -1773 -1990 -2130 0
-1702 -1773 -2058 -2130 0
-1702 -1773 -2043 0
-1702 -1773 -2043 -2117 0
-1659 -1781 0
-1760 -1781 -1914 0
-1749 -1781 0
-1726 -2052 -2090 0
-1596 -1816 -1960 0
-1726 -1921 -2052 -2090 0
-1596 -1816 -1856 -1960 0
-1726 -1963 -2052 -2090 0
-1596 -1693 -1816 -1960 0
-1956 -2052 -2090 0
-1692 -1816 -1960 0
-1675 -1956 -2052 -2090 0
-1692 -1816 -1873 -1960 0
-1775 -2087 0
-1823 -2085 0
-1843 -1946 -2087 0
-1823 -1978 -2030 0
-1928 -2087 0
-1823 -2024 0
-1688 -2130 0
-1688 -1990 -2130 0
-1688 -2058 -2130 0
-1688 -2043 0
-1688 -2043 -2117 0
-1688 -1981 0
-1688 -1886 -1954 -1981 0
-1688 -1842 -1908 -2130 0
-1688 -1842 -1908 -2041 -2117 -2163 0
-1688 -1796 -1862 -1981 0
-1688 -1796 -1862 -1886 -1954 -1981 0
-1688 -1873 -1981 0
-1688 -1873 -1886 -1954 -1981 0
-1688 -1931 -1935 -2130 0
-1726 -2047 0
-1596 -1950 0
-1726 -1921 -2047 0
-1596 -1856 -1950 0
-1726 -1963 -2047 0
-1596 -1693 -1950 0
-1956 -2047 0
-1692 -1950 0
-1675 -1956 -2047 0
-1692 -1873 -1950 0
-1909 -2047 0
-1845 -1950 0
-1595 -1689 -1909 -2047 0
-1845 -1950 -2037 -2048 0
-1726 -1841 -1974 -2047 0
-1596 -1748 -1837 -1950 0
-1675 -1739 -1815 -1841 -1974 -2047 0
-1686 -1719 -1748 -1837 -1873 -1950 0
-1909 -2047 -2104 -2113 0
-1550 -1660 -1845 -1950 0
-1595 -1689 -1909 -2047 -2104 -2113 0
-1550 -1660 -1845 -1950 -2037 -2048 0
-1909 -2047 -2117 0
-1675 -1845 -1950 0
-1595 -1689 -1909 -2047 -2117 0
-1675 -1845 -1950 -2037 -2048 0
-1726 -2017 -2023 -2047 0
-1596 -1755 -1759 -1950 0
-1701 -1773 -2130 0
-1701 -1773 -1990 -2130 0
-1701 -1773 -2058 -2130 0
-1701 -1773 -2043 0
-1701 -1773 -2043 -2117 0
-1726 -2055 -2090 0
-1596 -1816 -1967 0
-1726 -1921 -2055 -2090 0
-1596 -1816 -1856 -1967 0
-1726 -1963 -2055 -2090 0
-1596 -1693 -1816 -1967 0
-1956 -2055 -2090 0
-1692 -1816 -1967 0
-1675 -1956 -2055 -2090 0
-1692 -1816 -1873 -1967 0
-1699 -1787 -1796 0
-1699 -1773 0
-1699 -1773 -1796 -1862 0
-1699 -1773 -1873 0
-1534 0
-1534 -1862 -2043 0
-1534 -1873 0
-1534 -1721 0
-1534 -1776 -1796 0
-2029 -2113 0
-1969 -2025 0
-1969 -2025 -2041 -2130 0
-1817 -1825 -2029 -2113 0
-1674 -1699 -1787 -1796 0
-1674 -1699 -1773 0
-1674 -1699 -1773 -1796 -1862 0
-1674 -1699 -1773 -1873 0
-1534 -1674 0
-1534 -1674 -1862 -2043 0
-1534 -1674 -1873 0
-1534 -1674 -1721 0
-1534 -1674 -1776 -1796 0
-1674 -2029 -2113 0
-1674 -1969 -2025 0
-1674 -1969 -2025 -2041 -2130 0
-1568 -1674 0
-1568 -1674 -1796 -1862 0
-1568 -1674 -1873 0
-1568 -1674 -2041 -2043 0
-1568 -1674 -1943 0
-1568 -1674 -1682 -1787 -1796 0
-1568 -1674 -1682 -1773 0
-1568 -1674 -1682 -1773 -1796 -1862 0
-1568 -1674 -1682 -1773 -1873 0
-1674 -1828 -2029 -2113 0
-1732 -1828 0
-1732 -1796 -1828 -1862 0
-1732 -1828 -1873 0
-1732 -1828 -2041 -2043 0
-1732 -1828 -1943 0
-1732 -1828 -1856 0
-1732 -1796 -1828 -1856 -1862 0
-1732 -1828 -1856 -1873 0
-1732 -1796 -1828 -1856 -1935 0
-1732 -1828 -1856 -1931 -1935 0
-1732 -1828 -1856 -1935 -2043 0
-1732 -1828 -1856 -2041 -2043 0
-1732 -1817 -2029 -2113 0
-1732 -1817 -1914 0
-1732 -1796 -1817 -1862 -1914 0
-1732 -1817 -1873 -1914 0
-1732 -1817 -1914 -2041 -2043 0
-1732 -1817 -1914 -1943 0
-1825 0
-1796 -1825 -1862 0
-1825 -1873 0
-1825 -2041 -2043 0
-1825 -1943 0
-1825 -1856 0
-1796 -1825 -1856 -1862 0
-1825 -1856 -1873 0
-1796 -1825 -1856 -1935 0
-1825 -1856 -1931 -1935 0
-1825 -1856 -1935 -2043 0
-1825 -1856 -2041 -2043 0
-2025 0
-2025 -2041 -2130 0
-1739 -2029 -2113 0
-1739 -1969 -2025 0
-1739 -1969 -2025 -2041 -2130 0
-1732 -1735 -2025 0
-1732 -1735 -2025 -2041 -2130 0
-2130 0
-2041 -2117 -2163 0
-1990 -2130 0
-2029 -2130 0
-1914 0
-1796 -1862 -1914 0
-1873 -1914 0
-1914 -2041 -2043 0
-1914 -1943 0
-1923 -2130 0
-1923 -2041 -2117 -2163 0
-1923 -1977 0
-1923 -1977 -2117 0
-1923 -1977 -2117 -2163 0
-1828 -2025 0
-1828 -2025 -2041 -2130 0
-1828 -1923 -1977 -2029 0
-1828 -1886 0
-1796 -1828 -1862 -1886 0
-1828 -1873 -1886 0
-1828 -1886 -2041 -2043 0
-1828 -1886 -1943 0
-1828 -1856 -1886 0
-1796 -1828 -1856 -1862 -1886 0
-1828 -1856 -1873 -1886 0
-1796 -1828 -1856 -1886 -1935 0
-1828 -1856 -1886 -1931 -1935 0
-1828 -1856 -1886 -1935 -2043 0
-1828 -1856 -1886 -2041 -2043 0
-1817 -1886 -2029 -2113 0
-1817 -1886 -1914 0
-1796 -1817 -1862 -1886 -1914 0
-1817 -1873 -1886 -1914 0
-1817 -1886 -1914 -2041 -2043 0
-1817 -1886 -1914 -1943 0
-1699 -1732 -1787 -1796 -1886 0
-1699 -1732 -1773 -1886 0
-1699 -1732 -1773 -1796 -1862 -1886 0
-1699 -1732 -1773 -1873 -1886 0
-1699 -1739 -1787 -1796 0
-1699 -1739 -1773 0
-1699 -1739 -1773 -1796 -1862 0
-1699 -1739 -1773 -1873 0
-1534 -1732 -1886 0
-1534 -1732 -1862 -1886 -2043 0
-1534 -1732 -1873 -1886 0
-1534 -1721 -1732 -1886 0
-1534 -1732 -1776 -1796 -1886 0
-1534 -1739 0
-1534 -1739 -1862 -2043 0
-1534 -1739 -1873 0
-1534 -1721 -1739 0
-1534 -1739 -1776 -1796 0
-1659 -1668 -1699 -1787 -1796 0
-1659 -1668 -1699 -1773 0
-1668 -1699 -1773 -1856 -1990 -2130 0
-1659 -1668 -1699 -1773 -1796 -1862 0
-1659 -1668 -1699 -1773 -1873 0
-1534 -1659 -1668 0
-1534 -1659 -1668 -1862 -2043 0
-1534 -1659 -1668 -1873 0
-1534 -1659 -1668 -1721 0
-1534 -1659 -1668 -1776 -1796 0
-1534 -1668 -1773 -1840 -1990 -2130 0
-1668 -1732 -2025 0
-1668 -1732 -2025 -2041 -2130 0
-1668 -1732 -1828 -2130 0
-1668 -1732 -1828 -2041 -2117 -2163 0
-1668 -1732 -1828 -1990 -2130 0
-1668 -1732 -1828 -2029 -2113 0
-1668 -1732 -1828 -2029 -2130 0
-1668 -1732 -1817 -1886 -2025 0
-1668 -1732 -1817 -1886 -2025 -2041 -2130 0
-1668 -1732 -1817 -1969 0
-1668 -1732 -1817 -1969 -2130 -2152 0
-1668 -1732 -1817 -1969 -2163 0
-1668 -1732 -1817 -1969 -2117 0
-1668 -1732 -1817 -1969 -2089 -2117 -2130 0
-1668 -1732 -1817 -1969 -2110 -2113 0
-1668 -1732 -1817 -1954 -2029 -2130 0
-1659 0
-1659 -1796 -1862 0
-1659 -1873 0
-1659 -2041 -2043 0
-1659 -1943 0
-1856 -1990 -2130 0
-1914 -1969 0
-1914 -1969 -2130 -2152 0
-1914 -1969 -2163 0
-1914 -1969 -2117 0
-1914 -1969 -2089 -2117 -2130 0
-1914 -1969 -2110 -2113 0
-1914 -1954 -2029 -2130 0
-1886 -1914 -2025 0
-1886 -1914 -2025 -2041 -2130 0
-1923 -1969 -2029 -2130 0
-1923 -1954 0
-1923 -1954 -2130 -2152 0
-1923 -1954 -2163 0
-1923 -1954 -2117 0
-1923 -1954 -2089 -2117 -2130 0
-1923 -1954 -2110 -2113 0
-2058 -2130 0
-2043 0
-2043 -2117 0
-1981 0
-1886 -1954 -1981 0
-1842 -1908 -2130 0
-1842 -1908 -2041 -2117 -2163 0
-1796 -1862 -1981 0
-1796 -1862 -1886 -1954 -1981 0
-1873 -1981 0
-1873 -1886 -1954 -1981 0
-1931 -1935 -2130 0
-1760 -2130 0
-1760 -2041 -2117 -2163 0
-1760 -1990 -2130 0
-1760 -2029 -2113 0
-1760 -2029 -2130 0
-1760 -1914 0
-1760 -1796 -1862 -1914 0
-1760 -1873 -1914 0
-1760 -1914 -2041 -2043 0
-1760 -1914 -1943 0
-1760 -1923 -2130 0
-1760 -1923 -2041 -2117 -2163 0
-1760 -1923 -1977 0
-1760 -1923 -1977 -2117 0
-1760 -1923 -1977 -2117 -2163 0
-1749 0
-1749 -1796 -1862 0
-1749 -1873 0
-1749 -2041 -2043 0
-1749 -1943 0
-1749 -1886 -1977 0
-1749 -1886 -1977 -2029 0
-1749 -1886 -2113 0
-1749 -1886 -1981 -2043 -2113 0
-1749 -1908 -1969 -2029 -2130 0
-1749 -1969 -2025 -2130 0
-1749 -1954 -1977 -2029 0
-1749 -1908 -1954 0
-1749 -1908 -1954 -2130 -2152 0
-1749 -1908 -1954 -2163 0
-1749 -1908 -1954 -2117 0
-1749 -1908 -1954 -2089 -2117 -2130 0
-1749 -1954 -2043 -2097 -2117 0
-1749 -1908 -1954 -2110 -2113 0
-1787 -1981 0
-1787 -1886 -1954 -1981 0
-1659 -1682 -1787 -1796 0
-1659 -1682 -1773 0
-1682 -1773 -1856 -1990 -2130 0
-1659 -1682 -1773 -1796 -1862 0
-1659 -1682 -1773 -1873 0
-1840 -1908 -2130 0
-1840 -1886 -2113 0
-1840 -1886 -1914 -1977 -2025 0
-1840 -1969 -2025 -2130 0
-1840 -1908 -2041 -2117 -2163 0
-1659 -1862 -2043 0
-1659 -1721 0
-1659 -1776 -1796 0
-1773 -1840 -1990 -2130 0
-1699 -2130 0
-1699 -1990 -2130 0
-1699 -2058 -2130 0
-1699 -2043 0
-1699 -2043 -2117 0
-1699 -1981 0
-1699 -1886 -1954 -1981 0
-1699 -1842 -1908 -2130 0
-1699 -1842 -1908 -2041 -2117 -2163 0
-1699 -1796 -1862 -1981 0
-1699 -1796 -1862 -1886 -1954 -1981 0
-1699 -1873 -1981 0
-1699 -1873 -1886 -1954 -1981 0
-1699 -1931 -1935 -2130 0
-1659 -1856 0
-1842 0
-1842 -1886 -1954 0
-1842 -2117 0
-1842 -2097 0
-1931 0
-1931 -2117 0
-2056 -2098 -2104 0
-1550 -1832 -1968 0
-2056 -2090 0
-1816 -1968 0
-2056 -2090 -2104 -2113 0
-1550 -1660 -1816 -1968 0
-2056 -2090 -2117 0
-1675 -1816 -1968 0
-2042 0
-1952 0
-1956 -2042 -2113 0
-1660 -1692 -1952 0
-2042 -2117 0
-1675 -1952 0
-2042 -2168 0
-1746 -1952 0
-2042 -2089 -2104 0
-1550 -1826 -1952 0
-1660 -1761 0
-1862 -1941 0
-1696 -1750 0
-1932 -2049 0
-1696 -1726 -1750 -1815 0
-1596 -1686 -1932 -2049 0
-1660 -1761 -1772 -1777 0
-1862 -1941 -2088 -2091 0
-1871 -2056 -2098 -2104 0
-1550 -1832 -1968 -2125 0
-1871 -2056 -2090 0
-1816 -1968 -2125 0
-1871 -2056 -2090 -2104 -2113 0
-1550 -1660 -1816 -1968 -2125 0
-1871 -2056 -2090 -2117 0
-1675 -1816 -1968 -2125 0
-1871 -2042 0
-1952 -2125 0
-1871 -1956 -2042 -2113 0
-1660 -1692 -1952 -2125 0
-1871 -2042 -2117 0
-1675 -1952 -2125 0
-1871 -2042 -2168 0
-1746 -1952 -2125 0
-1871 -2042 -2089 -2104 0
-1550 -1826 -1952 -2125 0
-1660 -1761 -1871 0
-1862 -1941 -2125 0
-1696 -1750 -1871 0
-1932 -2049 -2125 0
-1696 -1726 -1750 -1815 -1871 0
-1596 -1686 -1932 -2049 -2125 0
-1871 -1930 0
-2019 -2125 0
-1871 -1930 -2104 -2113 0
-1550 -1660 -2019 -2125 0
-1871 -1930 -2117 0
-1675 -2019 -2125 0
-1815 -1871 -1930 -1956 0
-1686 -1692 -2019 -2125 0
-1871 -1930 -2034 0
-1768 -2019 -2125 0
-1871 -1930 -2040 -2098 -2104 0
-1550 -1832 -1957 -2019 -2125 0
-1871 -1930 -2040 -2090 0
-1816 -1957 -2019 -2125 0
-1871 -1930 -2040 -2090 -2104 -2113 0
-1550 -1660 -1816 -1957 -2019 -2125 0
-1871 -1930 -2040 -2090 -2117 0
-1675 -1816 -1957 -2019 -2125 0
-1660 -1761 -1786 -1871 0
-1862 -1941 -2095 -2125 0
-1711 -1786 0
-2095 -2160 0
-1711 -1786 -2104 -2113 0
-1550 -1660 -2095 -2160 0
-1711 -1786 -2117 0
-1675 -2095 -2160 0
-1711 -1786 -1815 -1956 0
-1686 -1692 -2095 -2160 0
-1711 -1786 -2034 0
-1768 -2095 -2160 0
-1711 -1786 -1990 0
-1921 -2095 -2160 0
-1711 -1786 -1990 -2104 -2113 0
-1550 -1660 -1921 -2095 -2160 0
-1711 -1786 -1990 -2117 0
-1675 -1921 -2095 -2160 0
-1711 -1786 -1990 -2017 -2104 0
-1550 -1755 -1921 -2095 -2160 0
-1711 -1786 -1990 -2017 -2023 0
-1755 -1759 -1921 -2095 -2160 0
-1711 -1786 -1956 -1990 -2017 0
-1692 -1755 -1921 -2095 -2160 0
-1711 -1786 -1815 -1956 -1990 0
-1686 -1692 -1921 -2095 -2160 0
-1660 -1711 -1761 -1777 0
-1862 -1941 -2091 -2160 0
-1711 -1777 -1843 0
-1978 -2091 -2160 0
-1711 -1777 -1843 -2104 -2113 0
-1550 -1660 -1978 -2091 -2160 0
-1711 -1777 -1843 -2117 0
-1675 -1978 -2091 -2160 0
-1711 -1777 -1815 -1843 -1956 0
-1686 -1692 -1978 -2091 -2160 0
-1711 -1777 -1843 -2034 0
-1768 -1978 -2091 -2160 0
-1772 0
-2088 0
-1772 -2104 -2113 0
-1550 -1660 -2088 0
-1772 -2117 0
-1675 -2088 0
-1772 -1815 -1956 0
-1686 -1692 -2088 0
-1772 -2034 0
-1768 -2088 0
-1772 -1990 0
-1921 -2088 0
-1772 -1990 -2104 -2113 0
-1550 -1660 -1921 -2088 0
-1772 -1990 -2117 0
-1675 -1921 -2088 0
-1772 -1990 -2017 -2104 0
-1550 -1755 -1921 -2088 0
-1772 -1990 -2017 -2023 0
-1755 -1759 -1921 -2088 0
-1772 -1956 -1990 -2017 0
-1692 -1755 -1921 -2088 0
-1772 -1815 -1956 -1990 0
-1686 -1692 -1921 -2088 0
-1750 0
-1932 0
-1726 -1750 -1815 0
-1596 -1686 -1932 0
-1660 -1719 -1761 0
-1862 -1941 -2163 0
-1696 -1719 -1750 0
-1932 -2049 -2163 0
-1696 -1719 -1726 -1750 -1815 0
-1596 -1686 -1932 -2049 -2163 0
-1704 -1711 -1750 0
-1932 -2152 -2160 0
-1704 -1711 -1726 -1750 -1815 0
-1596 -1686 -1932 -2152 -2160 0
-1726 0
-1596 0
-1675 -1739 -1815 0
-1686 -1719 -1873 0
-1726 -1921 0
-1596 -1856 0
-1726 -1761 0
-1596 -1941 0
-1843 0
-1978 0
-1843 -2104 -2113 0
-1550 -1660 -1978 0
-1843 -2117 0
-1675 -1978 0
-1815 -1843 -1956 0
-1686 -1692 -1978 0
-1843 -2034 0
-1768 -1978 0
-1726 -1855 0
-1596 -1989 0
-1675 -1739 -1815 -1855 0
-1686 -1719 -1873 -1989 0
-1855 -1913 0
-1839 -1989 0
-1675 -1855 -1913 0
-1839 -1873 -1989 0
-1675 -1739 -1855 -1913 0
-1719 -1839 -1873 -1989 0
-1750 -1786 0
-1932 -2095 0
-1726 -1750 -1786 -1815 0
-1596 -1686 -1932 -2095 0
-1761 -1786 -1855 -1913 0
-1839 -1941 -1989 -2095 0
-1595 -1786 0
-2037 -2095 0
-1595 -1786 -2104 -2113 0
-1550 -1660 -2037 -2095 0
-1595 -1786 -2117 0
-1675 -2037 -2095 0
-1595 -1786 -1815 -1956 0
-1686 -1692 -2037 -2095 0
-1595 -1786 -2034 0
-1768 -2037 -2095 0
-1595 -1786 -1990 0
-1921 -2037 -2095 0
-1595 -1786 -1990 -2104 -2113 0
-1550 -1660 -1921 -2037 -2095 0
-1595 -1786 -1990 -2117 0
-1675 -1921 -2037 -2095 0
-1595 -1786 -1990 -2017 -2104 0
-1550 -1755 -1921 -2037 -2095 0
-1595 -1786 -1990 -2017 -2023 0
-1755 -1759 -1921 -2037 -2095 0
-1595 -1786 -1956 -1990 -2017 0
-1692 -1755 -1921 -2037 -2095 0
-1595 -1786 -1815 -1956 -1990 0
-1686 -1692 -1921 -2037 -2095 0
-1595 -1660 -1761 -1777 0
-1862 -1941 -2037 -2091 0
-1595 -1777 -1843 0
-1978 -2037 -2091 0
-1595 -1777 -1843 -2104 -2113 0
-1550 -1660 -1978 -2037 -2091 0
-1595 -1777 -1843 -2117 0
-1675 -1978 -2037 -2091 0
-1595 -1777 -1815 -1843 -1956 0
-1686 -1692 -1978 -2037 -2091 0
-1595 -1777 -1843 -2034 0
-1768 -1978 -2037 -2091 0
-1595 -1711 -2056 -2098 -2104 0
-1550 -1832 -1968 -2037 -2160 0
-1595 -1711 -2056 -2090 0
-1816 -1968 -2037 -2160 0
-1595 -1711 -2056 -2090 -2104 -2113 0
-1550 -1660 -1816 -1968 -2037 -2160 0
-1595 -1711 -2056 -2090 -2117 0
-1675 -1816 -1968 -2037 -2160 0
-1719 -2056 -2098 -2104 0
-1550 -1832 -1968 -2163 0
-1719 -2056 -2090 0
-1816 -1968 -2163 0
-1719 -2056 -2090 -2104 -2113 0
-1550 -1660 -1816 -1968 -2163 0
-1719 -2056 -2090 -2117 0
-1675 -1816 -1968 -2163 0
-1595 -1711 -2042 0
-1952 -2037 -2160 0
-1595 -1711 -1956 -2042 -2113 0
-1660 -1692 -1952 -2037 -2160 0
-1595 -1711 -2042 -2117 0
-1675 -1952 -2037 -2160 0
-1595 -1711 -2042 -2168 0
-1746 -1952 -2037 -2160 0
-1595 -1711 -2042 -2089 -2104 0
-1550 -1826 -1952 -2037 -2160 0
-1719 -2042 0
-1952 -2163 0
-1719 -1956 -2042 -2113 0
-1660 -1692 -1952 -2163 0
-1719 -2042 -2117 0
-1675 -1952 -2163 0
-1719 -2042 -2168 0
-1746 -1952 -2163 0
-1719 -2042 -2089 -2104 0
-1550 -1826 -1952 -2163 0
-1775 -1860 -2056 -2098 -2104 0
-1550 -1832 -1968 -2085 -2107 0
-1775 -1860 -2056 -2090 0
-1816 -1968 -2085 -2107 0
-1726 -1860 -1921 -1990 -2056 -2090 0
-1596 -1816 -1856 -1921 -1968 -2107 0
-1775 -1860 -2056 -2090 -2104 -2113 0
-1550 -1660 -1816 -1968 -2085 -2107 0
-1775 -1860 -2056 -2090 -2117 0
-1675 -1816 -1968 -2085 -2107 0
-1775 -1860 -2042 0
-1952 -2085 -2107 0
-1775 -1860 -1956 -2042 -2113 0
-1660 -1692 -1952 -2085 -2107 0
-1775 -1860 -2042 -2117 0
-1675 -1952 -2085 -2107 0
-1775 -1860 -2042 -2168 0
-1746 -1952 -2085 -2107 0
-1775 -1860 -2042 -2089 -2104 0
-1550 -1826 -1952 -2085 -2107 0
-1726 -1860 -1921 -1979 -2042 -2090 0
-1596 -1816 -1856 -1904 -1952 -2107 0
-1711 -1750 -1860 0
-1932 -2107 -2160 0
-1711 -1726 -1750 -1815 -1860 0
-1596 -1686 -1932 -2107 -2160 0
-1711 -1726 -1786 -1860 0
-1596 -2095 -2107 -2160 0
-1675 -1711 -1739 -1786 -1815 -1860 0
-1686 -1719 -1873 -2095 -2107 -2160 0
-1711 -1726 -1786 -1860 -1921 0
-1596 -1856 -2095 -2107 -2160 0
-1660 -1711 -1761 -1786 -1860 0
-1862 -1941 -2095 -2107 -2160 0
-1711 -1726 -1761 -1786 -1860 0
-1596 -1941 -2095 -2107 -2160 0
-1595 -1711 -1750 -1777 -1860 0
-1932 -2037 -2091 -2107 -2160 0
-1595 -1711 -1726 -1750 -1777 -1815 -1860 0
-1596 -1686 -1932 -2037 -2091 -2107 -2160 0
-1696 -1711 -1777 -1860 0
-2049 -2091 -2107 -2160 0
-1696 -1711 -1726 -1735 -1777 -1860 0
-1596 -1704 -2049 -2091 -2107 -2160 0
-1696 -1711 -1739 -1777 -1860 0
-1719 -2049 -2091 -2107 -2160 0
-1675 -1696 -1711 -1777 -1860 0
-1873 -2049 -2091 -2107 -2160 0
-1675 -1696 -1711 -1726 -1777 -1826 -1860 0
-1596 -1776 -1873 -2049 -2091 -2107 -2160 0
-1660 -1667 -1696 -1711 -1777 -1860 0
-1862 -1870 -2049 -2091 -2107 -2160 0
-1689 -1711 -1726 -1761 -1777 -1860 0
-1596 -1941 -2048 -2091 -2107 -2160 0
-1775 0
-2085 0
-1775 -2104 -2113 0
-1550 -1660 -2085 0
-1775 -2117 0
-1675 -2085 0
-1775 -1815 -1956 0
-1686 -1692 -2085 0
-1775 -2034 0
-1768 -2085 0
-1726 -1921 -1990 0
-1596 -1856 -1921 0
-1696 -1843 0
-1978 -2049 0
-1696 -1726 -1735 -1843 0
-1596 -1704 -1978 -2049 0
-1696 -1739 -1843 0
-1719 -1978 -2049 0
-1675 -1696 -1843 0
-1873 -1978 -2049 0
-1675 -1696 -1726 -1826 -1843 0
-1596 -1776 -1873 -1978 -2049 0
-1660 -1667 -1696 -1843 0
-1862 -1870 -1978 -2049 0
-1689 -1726 -1761 -1843 0
-1596 -1941 -1978 -2048 0
-1595 -1750 -1843 0
-1932 -1978 -2037 0
-1595 -1726 -1750 -1815 -1843 0
-1596 -1686 -1932 -1978 -2037 0
-1696 -1726 -1761 -1855 0
-1596 -1941 -1989 -2049 0
-1689 -1855 0
-1989 -2048 0
-1689 -1726 -1735 -1855 0
-1596 -1704 -1989 -2048 0
-1689 -1739 -1855 0
-1719 -1989 -2048 0
-1675 -1689 -1855 0
-1873 -1989 -2048 0
-1675 -1689 -1726 -1826 -1855 0
-1596 -1776 -1873 -1989 -2048 0
-1660 -1667 -1689 -1855 0
-1862 -1870 -1989 -2048 0
-1726 -1963 0
-1596 -1693 0
-1956 0
-1692 0
-1675 -1956 0
-1692 -1873 0
-1909 0
-1845 0
-1595 -1689 -1909 0
-1845 -2037 -2048 0
-1726 -1841 -1974 0
-1596 -1748 -1837 0
-1675 -1739 -1815 -1841 -1974 0
-1686 -1719 -1748 -1837 -1873 0
-1909 -2104 -2113 0
-1550 -1660 -1845 0
-1595 -1689 -1909 -2104 -2113 0
-1550 -1660 -1845 -2037 -2048 0
-1909 -2117 0
-1675 -1845 0
-1595 -1689 -1909 -2117 0
-1675 -1845 -2037 -2048 0
-1726 -2017 -2023 0
-1596 -1755 -1759 0
-1726 -1946 0
-1596 -2030 0
-1675 -1739 -1815 -1946 0
-1686 -1719 -1873 -2030 0
-1726 -1921 -1946 0
-1596 -1856 -2030 0
-1660 -1761 -1946 0
-1862 -1941 -2030 0
-1726 -1761 -1946 0
-1596 -1941 -2030 0
-1843 -1946 0
-1978 -2030 0
-1843 -1946 -2104 -2113 0
-1550 -1660 -1978 -2030 0
-1843 -1946 -2117 0
-1675 -1978 -2030 0
-1815 -1843 -1946 -1956 0
-1686 -1692 -1978 -2030 0
-1843 -1946 -2034 0
-1768 -1978 -2030 0
-1726 -1855 -1946 0
-1596 -1989 -2030 0
-1675 -1739 -1815 -1855 -1946 0
-1686 -1719 -1873 -1989 -2030 0
-1855 -1913 -1946 0
-1839 -1989 -2030 0
-1675 -1855 -1913 -1946 0
-1839 -1873 -1989 -2030 0
-1675 -1739 -1855 -1913 -1946 0
-1719 -1839 -1873 -1989 -2030 0
-1928 0
-2024 0
-1928 -2104 -2113 0
-1550 -1660 -2024 0
-1928 -2117 0
-1675 -2024 0
-1815 -1928 -1956 0
-1686 -1692 -2024 0
-1928 -2034 0
-1768 -2024 0
-1595 -1913 -1928 0
-1839 -2024 -2037 0
-1595 -1761 -1913 -1928 0
-1839 -1941 -2024 -2037 0
-1595 -1660 -1928 0
-1862 -2024 -2037 0
-1595 -1660 -1909 -1928 -1956 0
-1692 -1845 -1862 -2024 -2037 0
-1696 -1726 -1761 -1841 -1928 0
-1596 -1837 -1941 -2024 -2049 0
-1696 -1726 -1750 -1928 0
-1596 -1932 -2024 -2049 0
-1689 -1761 -1913 -1928 0
-1839 -1941 -2024 -2048 0
-1689 -1841 -1928 0
-1837 -2024 -2048 0
-1689 -1726 -1735 -1841 -1928 0
-1596 -1704 -1837 -2024 -2048 0
-1689 -1739 -1841 -1928 0
-1719 -1837 -2024 -2048 0
-1675 -1689 -1841 -1928 0
-1837 -1873 -2024 -2048 0
-1675 -1689 -1726 -1826 -1841 -1928 0
-1596 -1776 -1837 -1873 -2024 -2048 0
-1675 -1689 -1829 -1928 -1956 0
-1692 -1783 -1873 -2024 -2048 0
-1660 -1667 -1689 -1841 -1928 0
-1837 -1862 -1870 -2024 -2048 0
-1909 -2098 0
-1832 -1845 0
-1595 -1689 -1909 -2098 0
-1832 -1845 -2037 -2048 0
-1775 -2040 -2098 -2104 0
-1550 -1832 -1957 -2085 0
-1775 -2040 -2090 0
-1816 -1957 -2085 0
-1726 -1921 -1990 -2040 -2090 0
-1596 -1816 -1856 -1921 -1957 0
-1775 -2040 -2090 -2104 -2113 0
-1550 -1660 -1816 -1957 -2085 0
-1775 -2040 -2090 -2117 0
-1675 -1816 -1957 -2085 0
-1726 -1841 -1979 0
-1596 -1837 -1904 0
-1595 -1660 -1979 0
-1862 -1904 -2037 0
-1595 -1750 -1843 -1913 -1979 0
-1839 -1904 -1932 -1978 -2037 0
-1696 -1726 -1750 -1979 0
-1596 -1904 -1932 -2049 0
-1675 -1739 -1815 -1841 -1979 0
-1686 -1719 -1837 -1873 -1904 0
-1775 -1956 -2113 0
-1660 -1692 -2085 0
-1775 -2168 0
-1746 -2085 0
-1775 -2089 -2104 0
-1550 -1826 -2085 0
-1726 -1921 -1979 -2090 0
-1596 -1816 -1856 -1904 0
-1726 -2056 0
-1596 -1968 0
-1726 -1921 -2056 0
-1596 -1856 -1968 0
-1726 -1963 -2056 0
-1596 -1693 -1968 0
-1956 -2056 0
-1692 -1968 0
-1675 -1956 -2056 0
-1692 -1873 -1968 0
-1909 -2056 0
-1845 -1968 0
-1595 -1689 -1909 -2056 0
-1845 -1968 -2037 -2048 0
-1726 -1841 -1974 -2056 0
-1596 -1748 -1837 -1968 0
-1675 -1739 -1815 -1841 -1974 -2056 0
-1686 -1719 -1748 -1837 -1873 -1968 0
-1909 -2056 -2104 -2113 0
-1550 -1660 -1845 -1968 0
-1595 -1689 -1909 -2056 -2104 -2113 0
-1550 -1660 -1845 -1968 -2037 -2048 0
-1909 -2056 -2117 0
-1675 -1845 -1968 0
-1595 -1689 -1909 -2056 -2117 0
-1675 -1845 -1968 -2037 -2048 0
-1726 -2017 -2023 -2056 0
-1596 -1755 -1759 -1968 0
-1775 -1990 0
-1921 -2085 0
-1974 0
-1748 0
-1595 -1689 -1974 0
-1748 -2037 -2048 0
-1675 -1974 0
-1748 -1873 0
-1829 -1974 0
-1748 -1783 0
-2023 0
-1759 0
-1675 -2023 0
-1759 -1873 0
-1668 -1739 -1829 -1847 0
-1668 -1739 -1796 -1829 -1847 -1862 0
-1668 -1739 -1829 -1847 -1873 0
-1719 -1783 -1860 -1972 0
-1910 -2097 -2107 -2163 0
-1719 -1783 -1860 -1972 -2104 -2113 0
-1550 -1660 -1910 -2097 -2107 -2163 0
-1719 -1783 -1860 -1972 -2117 0
-1675 -1910 -2097 -2107 -2163 0
-1572 -1739 -1829 -1847 0
-1572 -1739 -1796 -1829 -1847 -1862 0
-1572 -1739 -1829 -1847 -1873 0
-1719 -1783 -1859 -1972 0
-1910 -2064 -2097 -2163 0
-1719 -1783 -1859 -1972 -2104 -2113 0
-1550 -1660 -1910 -2064 -2097 -2163 0
-1719 -1783 -1859 -1972 -2117 0
-1675 -1910 -2064 -2097 -2163 0
-1685 0
-1685 -1796 -1862 0
-1685 -1873 0
-1685 -2037 -2048 0
-1685 -1944 0
-1847 0
-1796 -1847 -1862 0
-1847 -1873 0
-1815 -1826 -1847 0
-1796 -1815 -1826 -1847 -1862 0
-1815 -1826 -1847 -1873 0
-1667 -1815 -1847 0
-1667 -1796 -1815 -1847 -1862 0
-1667 -1815 -1847 -1873 0
-1674 -1685 0
-1674 -1685 -1796 -1862 0
-1674 -1685 -1873 0
-1674 -1685 -2037 -2048 0
-1674 -1685 -1944 0
-1674 -1847 0
-1674 -1796 -1847 -1862 0
-1674 -1847 -1873 0
-1732 -1815 -1847 0
-1732 -1796 -1815 -1847 -1862 0
-1732 -1815 -1847 -1873 0
-1739 -1847 0
-1739 -1796 -1847 -1862 0
-1739 -1847 -1873 0
-2097 -2117 -2150 0
-2036 -2089 0
-2036 -2089 -2161 0
-2036 -2110 0
-2036 -2037 -2117 -2161 0
-2036 -2117 -2150 0
-2021 0
-2021 -2037 -2041 0
-2021 -2097 0
-2021 -2097 -2161 0
-2021 -2041 -2160 0
-1815 -1847 -1951 0
-1796 -1815 -1847 -1862 -1951 0
-1815 -1847 -1873 -1951 0
-1920 -1977 0
-1912 -1977 -2021 0
-1667 -1739 -1815 -1847 0
-1667 -1739 -1796 -1815 -1847 -1862 0
-1667 -1739 -1815 -1847 -1873 0
-1685 -1732 -1951 0
-1685 -1732 -1796 -1862 -1951 0
-1685 -1732 -1873 -1951 0
-1685 -1732 -1951 -2037 -2048 0
-1685 -1732 -1944 -1951 0
-1685 -1739 0
-1685 -1739 -1796 -1862 0
-1685 -1739 -1873 0
-1685 -1739 -2037 -2048 0
-1685 -1739 -1944 0
-1572 -1815 -1847 0
-1572 -1796 -1815 -1847 -1862 0
-1572 -1815 -1847 -1873 0
-1572 -1667 -1847 0
-1572 -1667 -1796 -1847 -1862 0
-1572 -1667 -1847 -1873 0
-1572 -1739 -1815 -1847 0
-1572 -1739 -1796 -1815 -1847 -1862 0
-1572 -1739 -1815 -1847 -1873 0
-1572 -1739 -1826 -1847 0
-1572 -1739 -1796 -1826 -1847 -1862 0
-1572 -1739 -1826 -1847 -1873 0
-1572 -1685 -2097 -2117 -2150 0
-1572 -1685 -2036 -2089 0
-1572 -1685 -2036 -2089 -2161 0
-1572 -1685 -2036 -2110 0
-1572 -1685 -2036 -2037 -2117 -2161 0
-1572 -1685 -2036 -2117 -2150 0
-1572 -1685 -2021 0
-1572 -1685 -2021 -2037 -2041 0
-1572 -1685 -2021 -2097 0
-1572 -1685 -2021 -2097 -2161 0
-1572 -1685 -2021 -2041 -2160 0
-1572 -1685 -1827 -1951 0
-1572 -1685 -1796 -1827 -1862 -1951 0
-1572 -1685 -1827 -1873 -1951 0
-1572 -1685 -1827 -1951 -2037 -2048 0
-1572 -1685 -1827 -1944 -1951 0
-1572 -1685 -1920 -2097 -2117 -2150 0
-1572 -1685 -1920 -1969 -2021 -2117 0
-1572 -1685 -1912 -1951 -2113 0
-1572 -1685 -1912 -1954 -2021 -2117 0
-1572 -1664 -2097 -2117 -2150 0
-1572 -1664 -2036 -2089 0
-1572 -1664 -2036 -2089 -2161 0
-1572 -1664 -2036 -2110 0
-1572 -1664 -2036 -2037 -2117 -2161 0
-1572 -1664 -2036 -2117 -2150 0
-1572 -1664 -2021 0
-1572 -1664 -2021 -2037 -2041 0
-1572 -1664 -2021 -2097 0
-1572 -1664 -2021 -2097 -2161 0
-1572 -1664 -2021 -2041 -2160 0
-1572 -1664 -1847 0
-1572 -1664 -1815 -1847 -1951 0
-1572 -1664 -1796 -1847 -1862 0
-1572 -1664 -1796 -1815 -1847 -1862 -1951 0
-1572 -1664 -1847 -1873 0
-1572 -1664 -1815 -1847 -1873 -1951 0
-1572 -1664 -1920 -1977 0
-1572 -1664 -1912 -1977 -2021 0
-1572 -1754 -2097 -2117 -2150 0
-1572 -1754 -2036 -2089 0
-1572 -1754 -2036 -2089 -2161 0
-1572 -1754 -2036 -2110 0
-1572 -1754 -2036 -2037 -2117 -2161 0
-1572 -1754 -2036 -2117 -2150 0
-1572 -1754 -2021 0
-1572 -1754 -2021 -2037 -2041 0
-1572 -1754 -2021 -2097 0
-1572 -1754 -2021 -2097 -2161 0
-1572 -1754 -2021 -2041 -2160 0
-1572 -1754 -1840 -1977 -2021 0
-1827 -1951 0
-1796 -1827 -1862 -1951 0
-1827 -1873 -1951 0
-1827 -1951 -2037 -2048 0
-1827 -1944 -1951 0
-1920 -2097 -2117 -2150 0
-1920 -1969 -2021 -2117 0
-1912 -1951 -2113 0
-1912 -1954 -2021 -2117 0
-1972 0
-1972 -2117 0
-1990 -2021 0
-1796 -1862 -1972 0
-1796 -1862 -1972 -2117 0
-1796 -1862 -1990 -2021 0
-1873 -1972 0
-1873 -1972 -2117 0
-1873 -1990 -2021 0
-1927 -1977 -2021 0
-1685 -1754 -2097 -2117 -2150 0
-1685 -1754 -2036 -2089 0
-1685 -1754 -2036 -2089 -2161 0
-1685 -1754 -2036 -2110 0
-1685 -1754 -2036 -2037 -2117 -2161 0
-1685 -1754 -2036 -2117 -2150 0
-1685 -1754 -2021 0
-1685 -1754 -2021 -2037 -2041 0
-1685 -1754 -2021 -2097 0
-1685 -1754 -2021 -2097 -2161 0
-1685 -1754 -2021 -2041 -2160 0
-1787 -1972 0
-1787 -1972 -2117 0
-1787 -1990 -2021 0
-1840 -1951 -2113 0
-1840 -1954 -2021 -2117 0
-1840 -1977 -2021 0
-1827 -1840 -1951 -2021 0
-1827 -1840 -1951 -2021 -2150 -2160 0
-1721 -1827 -1951 0
-1776 -1796 -1827 -1951 0
-1664 -1773 -1951 -1972 -2113 0
-1595 -1685 -1972 0
-1595 -1685 -1972 -2117 0
-1595 -1685 -1990 -2021 0
-1595 -1685 -1796 -1862 -1972 0
-1595 -1685 -1796 -1862 -1972 -2117 0
-1595 -1685 -1796 -1862 -1990 -2021 0
-1595 -1685 -1873 -1972 0
-1595 -1685 -1873 -1972 -2117 0
-1595 -1685 -1873 -1990 -2021 0
-1595 -1685 -1927 -1977 -2021 0
-1595 -1664 -1951 -1972 -2113 0
-1595 -1754 -2097 -2117 -2150 0
-1595 -1754 -2036 -2089 0
-1595 -1754 -2036 -2089 -2161 0
-1595 -1754 -2036 -2110 0
-1595 -1754 -2036 -2037 -2117 -2161 0
-1595 -1754 -2036 -2117 -2150 0
-1595 -1754 -2021 0
-1595 -1754 -2021 -2037 -2041 0
-1595 -1754 -2021 -2097 0
-1595 -1754 -2021 -2097 -2161 0
-1595 -1754 -2021 -2041 -2160 0
-1595 -1787 -1796 -1827 -1951 0
-1595 -1773 -1827 -1951 0
-1595 -1773 -1796 -1827 -1862 -1951 0
-1595 -1773 -1827 -1873 -1951 0
-1696 -1827 -1951 0
-1827 -1856 -1951 0
-1856 -1920 -1951 0
-1856 -1912 0
-1815 -1856 -1912 -1951 0
-1927 0
-1927 -2161 0
-1927 -2117 0
-1927 -2089 -2117 -2150 0
-1927 -2150 -2160 0
-1927 -1951 -1954 0
-1927 -2036 0
-1911 -1927 -1951 0
-1927 -2097 0
-1773 -1776 -1827 -1951 0
-1862 -2021 -2037 0
-1827 -1856 -1862 -1951 -1990 -2037 0
-1696 -1827 -1873 -1951 0
-1827 -1856 -1873 -1951 0
-1856 -1873 -1920 -1951 0
-1856 -1873 -1912 0
-1815 -1856 -1873 -1912 -1951 0
-1873 -1935 0
-1873 -1935 -1951 -1954 0
-1873 -1935 -2036 0
-1873 -1935 -2117 0
-1873 -1911 -1935 -1951 0
-1873 -1935 -2097 0
-1827 -1847 -1873 -1935 -1951 0
-1847 -1873 -1920 -1935 -1951 0
-1847 -1873 -1912 -1935 0
-1815 -1847 -1873 -1912 -1935 -1951 0
-1873 -1927 0
-1873 -1927 -1951 -1954 0
-1873 -1927 -2036 0
-1873 -1927 -2117 0
-1873 -1911 -1927 -1951 0
-1873 -1927 -2097 0
-1796 -1944 -1977 -2021 0
-1796 0
-1796 -1951 -1954 0
-1796 -2036 0
-1796 -2117 0
-1796 -1911 -1951 0
-1796 -2097 0
-1796 -1977 -2021 0
-1796 -1972 -1977 0
-1796 -1951 -1954 -1972 -1977 0
-1796 -1972 -1977 -2036 0
-1796 -2161 0
-1796 -2117 -2161 0
-1796 -2021 -2048 0
-1796 -1972 -2048 0
-1796 -1951 -1954 -1972 -2048 0
-1796 -1972 -2036 -2048 0
-1796 -1920 -1972 -2048 0
-1796 -1827 -1951 -1990 -2048 0
-1796 -2049 0
-1796 -1951 -1954 -2049 0
-1796 -2036 -2049 0
-1796 -2049 -2117 0
-1796 -1911 -1951 -2049 0
-1796 -2049 -2097 0
-1796 -2049 -2161 0
-1796 -2049 -2117 -2161 0
-1796 -1827 -1951 -1977 -2049 0
-1776 -1944 -1977 -2021 0
-1787 -1827 -1951 0
-1787 -1827 -1873 -1951 0
-1713 -1873 -1944 -1977 -2021 0
-1713 -1796 -1827 -1951 0
-1713 -1796 -1972 0
-1713 -1796 -1972 -2117 0
-1713 -1796 -1990 -2021 0
-1696 -1713 -1796 -1827 -1951 0
-1713 -1796 -1827 -1856 -1951 0
-1713 -1796 -1856 -1920 -1951 0
-1713 -1796 -1856 -1912 0
-1713 -1796 -1815 -1856 -1912 -1951 0
-1710 -1944 -1977 -2021 0
-1710 0
-1710 -1951 -1954 0
-1710 -2036 0
-1710 -2117 0
-1710 -1911 -1951 0
-1710 -2097 0
-1710 -1977 -2021 0
-1710 -1972 -1977 0
-1710 -1951 -1954 -1972 -1977 0
-1710 -1972 -1977 -2036 0
-1710 -2161 0
-1710 -2117 -2161 0
-1710 -2021 -2048 0
-1710 -1972 -2048 0
-1710 -1951 -1954 -1972 -2048 0
-1710 -1972 -2036 -2048 0
-1710 -1920 -1972 -2048 0
-1710 -1827 -1951 -1990 -2048 0
-1710 -2049 0
-1710 -1951 -1954 -2049 0
-1710 -2036 -2049 0
-1710 -2049 -2117 0
-1710 -1911 -1951 -2049 0
-1710 -2049 -2097 0
-1710 -2049 -2161 0
-1710 -2049 -2117 -2161 0
-1710 -1827 -1951 -1977 -2049 0
-1710 -1773 -1827 -1873 -1951 0
-1710 -1873 -1944 -1977 -2021 0
-1710 -1796 -1827 -1951 0
-1710 -1796 -1972 0
-1710 -1796 -1972 -2117 0
-1710 -1796 -1990 -2021 0
-1696 -1710 -1796 -1827 -1951 0
-1710 -1796 -1827 -1856 -1951 0
-1710 -1796 -1856 -1920 -1951 0
-1710 -1796 -1856 -1912 0
-1710 -1796 -1815 -1856 -1912 -1951 0
-1710 -1773 -1776 -1796 -1827 -1951 0
-1710 -1787 -1796 -1972 0
-1710 -1787 -1796 -1972 -2117 0
-1710 -1787 -1796 -1990 -2021 0
-1710 -1713 -1827 -1951 0
-1710 -1713 -1972 0
-1710 -1713 -1972 -2117 0
-1710 -1713 -1990 -2021 0
-1696 -1710 -1713 -1827 -1951 0
-1710 -1713 -1827 -1856 -1951 0
-1710 -1713 -1856 -1920 -1951 0
-1710 -1713 -1856 -1912 0
-1710 -1713 -1815 -1856 -1912 -1951 0
-1710 -1713 -1927 0
-1710 -1713 -1927 -2161 0
-1710 -1713 -1927 -2117 0
-1710 -1713 -1927 -2089 -2117 -2150 0
-1710 -1713 -1927 -2150 -2160 0
-1710 -1713 -1927 -1951 -1954 0
-1710 -1713 -1927 -2036 0
-1710 -1713 -1911 -1927 -1951 0
-1710 -1713 -1927 -2097 0
-1925 0
-1953 0
-1925 -2104 -2113 0
-1550 -1660 -1953 0
-1925 -2117 0
-1675 -1953 0
-1886 -1925 -1954 0
-1595 -1689 -1953 0
-1925 -2035 0
-1766 -1953 0
-1910 0
-1972 -2104 -2113 0
-1550 -1660 -1910 0
-1675 -1910 0
-1686 -1776 -1972 0
-1910 -2041 -2089 0
-1686 -1776 -1972 -2104 -2113 0
-1550 -1660 -1910 -2041 -2089 0
-1686 -1776 -1972 -2117 0
-1675 -1910 -2041 -2089 0
-1686 -1870 -1972 0
-1910 -2041 -2110 0
-1686 -1870 -1972 -2104 -2113 0
-1550 -1660 -1910 -2041 -2110 0
-1686 -1870 -1972 -2117 0
-1675 -1910 -2041 -2110 0
-1871 -1925 0
-1953 -2125 0
-1871 -1925 -2104 -2113 0
-1550 -1660 -1953 -2125 0
-1871 -1925 -2117 0
-1675 -1953 -2125 0
-1871 -1886 -1925 -1954 0
-1595 -1689 -1953 -2125 0
-1871 -1925 -2035 0
-1766 -1953 -2125 0
-1871 -1972 0
-1910 -2125 0
-1871 -1972 -2104 -2113 0
-1550 -1660 -1910 -2125 0
-1871 -1972 -2117 0
-1675 -1910 -2125 0
-1686 -1711 -1972 0
-1910 -2041 -2160 0
-1686 -1711 -1972 -2104 -2113 0
-1550 -1660 -1910 -2041 -2160 0
-1686 -1711 -1972 -2117 0
-1675 -1910 -2041 -2160 0
-1719 -1972 0
-1910 -2163 0
-1719 -1972 -2104 -2113 0
-1550 -1660 -1910 -2163 0
-1719 -1972 -2117 0
-1675 -1910 -2163 0
-1675 -1729 -1829 0
-1712 -1783 -1873 0
-1763 -1826 0
-1776 -1937 0
-1747 -1763 -1826 0
-1718 -1776 -1937 0
-1667 -1763 0
-1870 -1937 0
-1675 -1747 -1763 -1886 0
-1595 -1718 -1873 -1937 0
-1675 -1729 -1763 0
-1712 -1873 -1937 0
-1756 0
-1936 0
-1756 -1815 -1886 0
-1595 -1686 -1936 0
-1756 -1829 0
-1783 -1936 0
-1747 -1756 -1829 0
-1718 -1783 -1936 0
-1732 -1756 -1815 0
-1686 -1711 -1936 0
-1686 -1690 -1972 0
-1910 -2038 -2041 0
-1686 -1690 -1972 -2104 -2113 0
-1550 -1660 -1910 -2038 -2041 0
-1686 -1690 -1972 -2117 0
-1675 -1910 -2038 -2041 0
-1854 -1913 0
-1839 -1987 0
-1756 -1838 -1913 0
-1839 -1936 -1973 0
-1686 -1719 -1870 -1972 0
-1910 -2041 -2110 -2163 0
-1686 -1719 -1870 -1972 -2104 -2113 0
-1550 -1660 -1910 -2041 -2110 -2163 0
-1686 -1719 -1870 -1972 -2117 0
-1675 -1910 -2041 -2110 -2163 0
-1690 -1711 -1925 0
-1953 -2038 -2160 0
-1690 -1711 -1925 -2104 -2113 0
-1550 -1660 -1953 -2038 -2160 0
-1690 -1711 -1925 -2117 0
-1675 -1953 -2038 -2160 0
-1690 -1711 -1886 -1925 -1954 0
-1595 -1689 -1953 -2038 -2160 0
-1690 -1711 -1925 -2035 0
-1766 -1953 -2038 -2160 0
-1719 -1925 0
-1953 -2163 0
-1719 -1925 -2104 -2113 0
-1550 -1660 -1953 -2163 0
-1719 -1925 -2117 0
-1675 -1953 -2163 0
-1719 -1886 -1925 -1954 0
-1595 -1689 -1953 -2163 0
-1719 -1925 -2035 0
-1766 -1953 -2163 0
-1686 -1859 -1972 0
-1910 -2041 -2064 0
-1686 -1859 -1972 -2104 -2113 0
-1550 -1660 -1910 -2041 -2064 0
-1686 -1859 -1972 -2117 0
-1675 -1910 -2041 -2064 0
-1859 -1870 -1972 0
-1910 -2064 -2110 0
-1859 -1870 -1972 -2104 -2113 0
-1550 -1660 -1910 -2064 -2110 0
-1859 -1870 -1972 -2117 0
-1675 -1910 -2064 -2110 0
-1686 -1719 -1859 -1972 0
-1910 -2041 -2064 -2163 0
-1686 -1719 -1859 -1972 -2104 -2113 0
-1550 -1660 -1910 -2041 -2064 -2163 0
-1686 -1719 -1859 -1972 -2117 0
-1675 -1910 -2041 -2064 -2163 0
-1719 -1776 -1859 -1972 0
-1910 -2064 -2089 -2163 0
-1719 -1776 -1859 -1972 -2104 -2113 0
-1550 -1660 -1910 -2064 -2089 -2163 0
-1719 -1776 -1859 -1972 -2117 0
-1675 -1910 -2064 -2089 -2163 0
-1675 -1729 -1829 -1859 -1925 0
-1712 -1783 -1873 -1953 -2064 0
-1763 -1826 -1859 -1925 0
-1776 -1937 -1953 -2064 0
-1747 -1763 -1826 -1859 -1925 0
-1718 -1776 -1937 -1953 -2064 0
-1667 -1763 -1859 -1925 0
-1870 -1937 -1953 -2064 0
-1675 -1747 -1763 -1859 -1886 -1925 0
-1595 -1718 -1873 -1937 -1953 -2064 0
-1675 -1729 -1763 -1859 -1925 0
-1712 -1873 -1937 -1953 -2064 0
-1756 -1859 -1925 0
-1936 -1953 -2064 0
-1756 -1815 -1859 -1886 -1925 0
-1595 -1686 -1936 -1953 -2064 0
-1756 -1829 -1859 -1925 0
-1783 -1936 -1953 -2064 0
-1747 -1756 -1829 -1859 -1925 0
-1718 -1783 -1936 -1953 -2064 0
-1732 -1756 -1815 -1859 -1925 0
-1686 -1711 -1936 -1953 -2064 0
-1690 -1791 -1859 -1925 0
-1953 -2038 -2064 -2096 0
-1690 -1791 -1859 -1925 -2104 -2113 0
-1550 -1660 -1953 -2038 -2064 -2096 0
-1690 -1791 -1859 -1925 -2117 0
-1675 -1953 -2038 -2064 -2096 0
-1690 -1791 -1859 -1886 -1925 -1954 0
-1595 -1689 -1953 -2038 -2064 -2096 0
-1690 -1791 -1859 -1925 -2035 0
-1766 -1953 -2038 -2064 -2096 0
-1675 -1729 -1829 -1854 -1859 -1925 0
-1712 -1783 -1873 -1953 -1987 -2064 0
-1675 -1696 -1756 -1854 -1859 -1925 0
-1873 -1936 -1953 -1987 -2049 -2064 0
-1660 -1690 -1838 -1859 -1925 0
-1862 -1953 -1973 -2038 -2064 0
-1675 -1689 -1756 -1838 -1859 -1925 0
-1873 -1936 -1953 -1973 -2048 -2064 0
-1675 -1729 -1829 -1859 -1863 0
-1712 -1783 -1873 -2015 -2064 0
-1763 -1826 -1859 -1863 0
-1776 -1937 -2015 -2064 0
-1747 -1763 -1826 -1859 -1863 0
-1718 -1776 -1937 -2015 -2064 0
-1667 -1763 -1859 -1863 0
-1870 -1937 -2015 -2064 0
-1675 -1747 -1763 -1859 -1863 -1886 0
-1595 -1718 -1873 -1937 -2015 -2064 0
-1675 -1729 -1763 -1859 -1863 0
-1712 -1873 -1937 -2015 -2064 0
-1756 -1859 -1863 0
-1936 -2015 -2064 0
-1756 -1815 -1859 -1863 -1886 0
-1595 -1686 -1936 -2015 -2064 0
-1756 -1829 -1859 -1863 0
-1783 -1936 -2015 -2064 0
-1747 -1756 -1829 -1859 -1863 0
-1718 -1783 -1936 -2015 -2064 0
-1732 -1756 -1815 -1859 -1863 0
-1686 -1711 -1936 -2015 -2064 0
-1859 -1863 -1972 0
-1910 -2015 -2064 0
-1686 -1690 -1859 -1863 -1972 0
-1910 -2015 -2038 -2041 -2064 0
-1859 -1863 -1972 -2104 -2113 0
-1550 -1660 -1910 -2015 -2064 0
-1686 -1690 -1859 -1863 -1972 -2104 -2113 0
-1550 -1660 -1910 -2015 -2038 -2041 -2064 0
-1859 -1863 -1972 -2117 0
-1675 -1910 -2015 -2064 0
-1686 -1690 -1859 -1863 -1972 -2117 0
-1675 -1910 -2015 -2038 -2041 -2064 0
-1854 -1859 -1863 -1913 0
-1839 -1987 -2015 -2064 0
-1756 -1838 -1859 -1863 -1913 0
-1839 -1936 -1973 -2015 -2064 0
-1675 -1729 -1829 -1859 -1933 0
-1712 -1783 -1873 -2026 -2064 0
-1763 -1826 -1859 -1933 0
-1776 -1937 -2026 -2064 0
-1747 -1763 -1826 -1859 -1933 0
-1718 -1776 -1937 -2026 -2064 0
-1667 -1763 -1859 -1933 0
-1870 -1937 -2026 -2064 0
-1675 -1747 -1763 -1859 -1886 -1933 0
-1595 -1718 -1873 -1937 -2026 -2064 0
-1675 -1729 -1763 -1859 -1933 0
-1712 -1873 -1937 -2026 -2064 0
-1756 -1859 -1933 0
-1936 -2026 -2064 0
-1756 -1815 -1859 -1886 -1933 0
-1595 -1686 -1936 -2026 -2064 0
-1756 -1829 -1859 -1933 0
-1783 -1936 -2026 -2064 0
-1747 -1756 -1829 -1859 -1933 0
-1718 -1783 -1936 -2026 -2064 0
-1732 -1756 -1815 -1859 -1933 0
-1686 -1711 -1936 -2026 -2064 0
-1756 -1859 -1913 -1933 -1979 0
-1839 -1904 -1936 -2026 -2064 0
-1690 -1791 0
-2038 -2096 0
-1690 -1791 -2104 -2113 0
-1550 -1660 -2038 -2096 0
-1690 -1791 -2117 0
-1675 -2038 -2096 0
-1690 -1791 -1886 -1954 0
-1595 -1689 -2038 -2096 0
-1690 -1791 -2035 0
-1766 -2038 -2096 0
-1675 -1729 -1829 -1854 0
-1712 -1783 -1873 -1987 0
-1675 -1696 -1756 -1854 0
-1873 -1936 -1987 -2049 0
-1660 -1690 -1838 0
-1862 -1973 -2038 0
-1675 -1689 -1756 -1838 0
-1873 -1936 -1973 -2048 0
-1756 -1921 0
-1856 -1936 0
-1910 -2104 -2113 0
-1550 -1660 -1847 0
-1675 -1910 -2104 -2113 0
-1550 -1660 -1847 -1873 0
-1756 -1921 -2104 -2113 0
-1550 -1660 -1856 -1936 0
-1910 -2117 0
-1675 -1847 0
-1675 -1910 -2117 0
-1675 -1847 -1873 0
-1756 -1921 -2117 0
-1675 -1856 -1936 0
-1756 -1913 -2022 0
-1758 -1839 -1936 0
-1675 -1729 -1829 -1925 -1933 0
-1712 -1783 -1873 -1953 -2026 0
-1763 -1826 -1925 -1933 0
-1776 -1937 -1953 -2026 0
-1747 -1763 -1826 -1925 -1933 0
-1718 -1776 -1937 -1953 -2026 0
-1667 -1763 -1925 -1933 0
-1870 -1937 -1953 -2026 0
-1675 -1747 -1763 -1886 -1925 -1933 0
-1595 -1718 -1873 -1937 -1953 -2026 0
-1675 -1729 -1763 -1925 -1933 0
-1712 -1873 -1937 -1953 -2026 0
-1756 -1925 -1933 0
-1936 -1953 -2026 0
-1756 -1815 -1886 -1925 -1933 0
-1595 -1686 -1936 -1953 -2026 0
-1756 -1829 -1925 -1933 0
-1783 -1936 -1953 -2026 0
-1747 -1756 -1829 -1925 -1933 0
-1718 -1783 -1936 -1953 -2026 0
-1732 -1756 -1815 -1925 -1933 0
-1686 -1711 -1936 -1953 -2026 0
-1910 -2098 0
-1832 -1847 0
-1675 -1910 -2098 0
-1832 -1847 -1873 0
-1756 -1921 -2098 0
-1832 -1856 -1936 0
-1660 -1690 -1979 0
-1862 -1904 -2038 0
-1675 -1689 -1756 -1979 0
-1873 -1904 -1936 -2048 0
-1756 -1913 -1979 0
-1839 -1904 -1936 0
-1690 -1756 -1791 -1979 0
-1904 -1936 -2038 -2096 0
-1690 -1729 -1732 -1756 -1791 -1979 0
-1711 -1712 -1904 -1936 -2038 -2096 0
-1690 -1791 -2168 0
-1746 -2038 -2096 0
-1690 -1791 -2089 -2104 0
-1550 -1826 -2038 -2096 0
-1660 -1690 -1863 -1910 -2090 0
-1816 -1847 -1862 -2015 -2038 0
-1910 -1925 -2037 0
-1847 -1886 -1953 0
-1675 -1910 -1925 -2037 0
-1847 -1873 -1886 -1953 0
-1756 -1921 -1925 -2037 0
-1856 -1886 -1936 -1953 0
-1910 -1925 -2037 -2104 -2113 0
-1550 -1660 -1847 -1886 -1953 0
-1675 -1910 -1925 -2037 -2104 -2113 0
-1550 -1660 -1847 -1873 -1886 -1953 0
-1756 -1921 -1925 -2037 -2104 -2113 0
-1550 -1660 -1856 -1886 -1936 -1953 0
-1910 -1925 -2037 -2117 0
-1675 -1847 -1886 -1953 0
-1675 -1910 -1925 -2037 -2117 0
-1675 -1847 -1873 -1886 -1953 0
-1756 -1921 -1925 -2037 -2117 0
-1675 -1856 -1886 -1936 -1953 0
-1756 -1913 -1925 -2022 -2037 0
-1758 -1839 -1886 -1936 -1953 0
-1660 -1690 -1863 -1910 -2037 0
-1847 -1862 -1886 -2015 -2038 0
-1675 -1729 -1829 -1933 -2037 0
-1712 -1783 -1873 -1886 -2026 0
-1763 -1826 -1933 -2037 0
-1776 -1886 -1937 -2026 0
-1747 -1763 -1826 -1933 -2037 0
-1718 -1776 -1886 -1937 -2026 0
-1667 -1763 -1933 -2037 0
-1870 -1886 -1937 -2026 0
-1675 -1747 -1763 -1886 -1933 -2037 0
-1595 -1718 -1873 -1886 -1937 -2026 0
-1675 -1729 -1763 -1933 -2037 0
-1712 -1873 -1886 -1937 -2026 0
-1756 -1933 -2037 0
-1886 -1936 -2026 0
-1756 -1815 -1886 -1933 -2037 0
-1595 -1686 -1886 -1936 -2026 0
-1756 -1829 -1933 -2037 0
-1783 -1886 -1936 -2026 0
-1747 -1756 -1829 -1933 -2037 0
-1718 -1783 -1886 -1936 -2026 0
-1732 -1756 -1815 -1933 -2037 0
-1686 -1711 -1886 -1936 -2026 0
-1690 -1791 -2037 -2098 -2104 0
-1550 -1832 -1886 -2038 -2096 0
-1690 -1791 -2037 -2090 0
-1816 -1886 -2038 -2096 0
-1690 -1791 -2037 -2090 -2104 -2113 0
-1550 -1660 -1816 -1886 -2038 -2096 0
-1690 -1791 -2037 -2090 -2117 0
-1675 -1816 -1886 -2038 -2096 0
-1690 -1791 -2049 0
-1969 -2038 -2096 0
-1690 -1791 -1990 0
-1921 -2038 -2096 0
-1690 -1854 -1990 0
-1921 -1987 -2038 0
-1838 -1990 0
-1921 -1973 0
-1686 -1690 -1838 -1990 0
-1921 -1973 -2038 -2041 0
-2022 0
-1758 0
-1747 -2022 0
-1718 -1758 0
-1675 -2022 0
-1758 -1873 0
-1675 -1729 -1826 -2022 0
-1712 -1758 -1776 -1873 0
-1729 -1732 -2022 0
-1711 -1712 -1758 0
-1689 -1690 -2022 0
-1758 -2038 -2048 0
-1763 -2022 0
-1758 -1937 0
-1690 -1848 -2022 0
-1758 -1976 -2038 0
-1829 -2022 0
-1758 -1783 0
-1690 -1791 -2089 -2090 0
-1816 -1826 -2038 -2096 0
-1756 -1886 -2113 0
-1595 -1660 -1936 0
-1690 -1791 -1886 -1921 -1990 -2113 0
-1595 -1660 -1856 -1921 -2038 -2096 0
-1690 -1791 -2049 -2117 0
-1675 -1969 -2038 -2096 0
-1690 -1791 -1990 -2117 0
-1675 -1921 -2038 -2096 0
-1690 -1854 -1990 -2117 0
-1675 -1921 -1987 -2038 0
-1838 -1990 -2117 0
-1675 -1921 -1973 0
-1686 -1690 -1838 -1990 -2117 0
-1675 -1921 -1973 -2038 -2041 0
-2017 -2117 0
-1675 -1755 0
-1689 -1690 -2017 -2117 0
-1675 -1755 -2038 -2048 0
-1763 -2017 -2117 0
-1675 -1755 -1937 0
-1675 -2017 -2117 0
-1675 -1755 -1873 0
-1690 -1848 -2017 -2117 0
-1675 -1755 -1976 -2038 0
-1829 -2017 -2117 0
-1675 -1755 -1783 0
-1690 -1791 -1972 -2017 -2117 0
-1675 -1755 -1910 -2038 -2096 0
-1690 -1854 -1972 -2017 -2117 0
-1675 -1755 -1910 -1987 -2038 0
-1838 -1972 -2017 -2117 0
-1675 -1755 -1910 -1973 0
-1686 -1690 -1838 -1972 -2017 -2117 0
-1675 -1755 -1910 -1973 -2038 -2041 0
-2022 -2117 0
-1675 -1758 0
-1689 -1690 -2022 -2117 0
-1675 -1758 -2038 -2048 0
-1763 -2022 -2117 0
-1675 -1758 -1937 0
-1675 -2022 -2117 0
-1675 -1758 -1873 0
-1690 -1848 -2022 -2117 0
-1675 -1758 -1976 -2038 0
-1829 -2022 -2117 0
-1675 -1758 -1783 0
-1756 -1913 -2035 -2104 0
-1550 -1766 -1839 -1936 0
-2104 0
-1550 0
-1689 -1690 -2104 0
-1550 -2038 -2048 0
-1763 -2104 0
-1550 -1937 0
-1675 -2104 0
-1550 -1873 0
-1690 -1848 -2104 0
-1550 -1976 -2038 0
-1829 -2104 0
-1550 -1783 0
-1756 -1913 -2104 0
-1550 -1839 -1936 0
-1910 -1913 -2104 0
-1550 -1839 -1847 0
-1689 -1690 -1910 -1913 -2104 0
-1550 -1839 -1847 -2038 -2048 0
-1763 -1910 -1913 -2104 0
-1550 -1839 -1847 -1937 0
-1747 -2104 0
-1550 -1718 0
-1675 -1747 -2104 0
-1550 -1718 -1873 0
-1756 -1954 -2104 0
-1550 -1689 -1936 0
-1910 -1954 -2104 0
-1550 -1689 -1847 0
-1689 -1690 -1910 -1954 -2104 0
-1550 -1689 -1847 -2038 -2048 0
-1763 -1910 -1954 -2104 0
-1550 -1689 -1847 -1937 0
-1854 -1910 -1954 -2104 0
-1550 -1689 -1847 -1987 0
-1690 -1791 -1921 -1954 -2104 0
-1550 -1689 -1856 -2038 -2096 0
-1969 -2104 0
-1550 -1696 0
-1689 -1690 -1969 -2104 0
-1550 -1696 -2038 -2048 0
-1763 -1969 -2104 0
-1550 -1696 -1937 0
-1675 -1969 -2104 0
-1550 -1696 -1873 0
-1690 -1848 -1969 -2104 0
-1550 -1696 -1976 -2038 0
-1829 -1969 -2104 0
-1550 -1696 -1783 0
-1747 -1969 -2104 0
-1550 -1696 -1718 0
-1675 -1747 -1969 -2104 0
-1550 -1696 -1718 -1873 0
-1690 -1791 -1913 -1969 -2104 0
-1550 -1696 -1839 -2038 -2096 0
-1756 -1913 -2035 -2089 0
-1766 -1826 -1839 -1936 0
-1690 -1791 -2098 0
-1832 -2038 -2096 0
-1690 -1791 -2098 -2117 0
-1675 -1832 -2038 -2096 0
-1756 -1913 -2035 -2117 -2151 0
-1675 -1733 -1766 -1839 -1936 0
-1690 -1791 -2104 -2151 0
-1550 -1733 -2038 -2096 0
-1910 -2104 -2151 0
-1550 -1733 -1847 0
-1675 -1910 -2104 -2151 0
-1550 -1733 -1847 -1873 0
-1756 -1921 -2104 -2151 0
-1550 -1733 -1856 -1936 0
-1690 -1791 -2049 -2104 -2151 0
-1550 -1733 -1969 -2038 -2096 0
-1690 -1791 -1990 -2104 -2151 0
-1550 -1733 -1921 -2038 -2096 0
-1690 -1854 -1990 -2104 -2151 0
-1550 -1733 -1921 -1987 -2038 0
-1838 -1990 -2104 -2151 0
-1550 -1733 -1921 -1973 0
-1686 -1690 -1838 -1990 -2104 -2151 0
-1550 -1733 -1921 -1973 -2038 -2041 0
-1756 -1913 -2035 -2159 0
-1728 -1766 -1839 -1936 0
-2159 0
-1728 0
-1689 -1690 -2159 0
-1728 -2038 -2048 0
-1763 -2159 0
-1728 -1937 0
-1675 -2159 0
-1728 -1873 0
-1690 -1848 -2159 0
-1728 -1976 -2038 0
-1829 -2159 0
-1728 -1783 0
-1756 -1913 -2159 0
-1728 -1839 -1936 0
-1910 -1913 -2159 0
-1728 -1839 -1847 0
-1689 -1690 -1910 -1913 -2159 0
-1728 -1839 -1847 -2038 -2048 0
-1763 -1910 -1913 -2159 0
-1728 -1839 -1847 -1937 0
-1747 -2159 0
-1718 -1728 0
-1675 -1747 -2159 0
-1718 -1728 -1873 0
-1756 -1954 -2159 0
-1689 -1728 -1936 0
-1910 -1954 -2159 0
-1689 -1728 -1847 0
-1689 -1690 -1910 -1954 -2159 0
-1689 -1728 -1847 -2038 -2048 0
-1763 -1910 -1954 -2159 0
-1689 -1728 -1847 -1937 0
-1854 -1910 -1954 -2159 0
-1689 -1728 -1847 -1987 0
-1690 -1791 -1921 -1954 -2159 0
-1689 -1728 -1856 -2038 -2096 0
-1969 -2159 0
-1696 -1728 0
-1689 -1690 -1969 -2159 0
-1696 -1728 -2038 -2048 0
-1763 -1969 -2159 0
-1696 -1728 -1937 0
-1675 -1969 -2159 0
-1696 -1728 -1873 0
-1690 -1848 -1969 -2159 0
-1696 -1728 -1976 -2038 0
-1829 -1969 -2159 0
-1696 -1728 -1783 0
-1747 -1969 -2159 0
-1696 -1718 -1728 0
-1675 -1747 -1969 -2159 0
-1696 -1718 -1728 -1873 0
-1690 -1791 -1913 -1969 -2159 0
-1696 -1728 -1839 -2038 -2096 0
-1690 -1791 -2090 -2117 -2159 0
-1675 -1728 -1816 -2038 -2096 0
-1756 -1913 -2035 -2117 -2159 0
-1675 -1728 -1766 -1839 -1936 0
-1690 -1791 -2104 -2159 0
-1550 -1728 -2038 -2096 0
-1910 -2104 -2159 0
-1550 -1728 -1847 0
-1675 -1910 -2104 -2159 0
-1550 -1728 -1847 -1873 0
-1756 -1921 -2104 -2159 0
-1550 -1728 -1856 -1936 0
-1690 -1791 -2049 -2104 -2159 0
-1550 -1728 -1969 -2038 -2096 0
-1690 -1791 -1990 -2104 -2159 0
-1550 -1728 -1921 -2038 -2096 0
-1690 -1854 -1990 -2104 -2159 0
-1550 -1728 -1921 -1987 -2038 0
-1838 -1990 -2104 -2159 0
-1550 -1728 -1921 -1973 0
-1686 -1690 -1838 -1990 -2104 -2159 0
-1550 -1728 -1921 -1973 -2038 -2041 0
-1690 -1791 -2089 -2090 -2104 -2159 0
-1550 -1728 -1816 -1826 -2038 -2096 0
-1910 -2098 -2104 -2159 0
-1550 -1728 -1832 -1847 0
-1675 -1910 -2098 -2104 -2159 0
-1550 -1728 -1832 -1847 -1873 0
-1756 -1921 -2098 -2104 -2159 0
-1550 -1728 -1832 -1856 -1936 0
-1690 -1791 -2151 -2159 0
-1728 -1733 -2038 -2096 0
-1910 -2151 -2159 0
-1728 -1733 -1847 0
-1675 -1910 -2151 -2159 0
-1728 -1733 -1847 -1873 0
-1756 -1921 -2151 -2159 0
-1728 -1733 -1856 -1936 0
-1690 -1791 -2049 -2151 -2159 0
-1728 -1733 -1969 -2038 -2096 0
-1690 -1791 -1990 -2151 -2159 0
-1728 -1733 -1921 -2038 -2096 0
-1690 -1854 -1990 -2151 -2159 0
-1728 -1733 -1921 -1987 -2038 0
-1838 -1990 -2151 -2159 0
-1728 -1733 -1921 -1973 0
-1686 -1690 -1838 -1990 -2151 -2159 0
-1728 -1733 -1921 -1973 -2038 -2041 0
-2022 -2151 -2159 0
-1728 -1733 -1758 0
-1747 -2022 -2151 -2159 0
-1718 -1728 -1733 -1758 0
-1675 -2022 -2151 -2159 0
-1728 -1733 -1758 -1873 0
-1675 -1729 -1826 -2022 -2151 -2159 0
-1712 -1728 -1733 -1758 -1776 -1873 0
-1729 -1732 -2022 -2151 -2159 0
-1711 -1712 -1728 -1733 -1758 0
-1689 -1690 -2022 -2151 -2159 0
-1728 -1733 -1758 -2038 -2048 0
-1763 -2022 -2151 -2159 0
-1728 -1733 -1758 -1937 0
-1690 -1848 -2022 -2151 -2159 0
-1728 -1733 -1758 -1976 -2038 0
-1829 -2022 -2151 -2159 0
-1728 -1733 -1758 -1783 0
-1907 -2037 -2096 0
-1674 -1907 -2037 -2096 0
-1739 -1907 -2037 -2096 0
-1572 -1667 -1907 -2037 -2096 0
-1572 -1739 -1826 -1907 -2037 -2096 0
-1688 -2114 0
-1688 -2106 0
-1688 -1911 -1964 0
-1688 -2020 0
-1688 -2081 0
-1688 -2096 -2106 0
-1688 -2123 -2160 0
-1688 -2049 -2114 0
-1688 -1964 -1980 0
-1688 -1980 0
-1688 -1980 -2036 0
-1688 -2037 -2048 -2106 0
-1688 -1911 -1964 -2037 -2048 0
-1688 -2020 -2037 -2048 0
-1688 -1863 -2037 -2106 0
-1688 -1941 -1980 -2037 -2106 0
-1688 -1859 -1863 -2106 0
-1688 -1859 -1863 -1911 -1964 0
-1688 -1859 -1863 -2020 0
-1688 -1941 -2114 0
-1688 -1941 -2081 0
-1688 -1941 -2096 -2106 0
-1688 -1941 -2123 -2160 0
-1688 -1941 -2049 -2114 0
-1688 -1863 -2048 -2114 0
-1688 -1863 -1933 -2106 0
-1688 -1863 -1911 -1933 -1964 0
-1688 -1863 -1933 -2020 0
-1688 -1838 -1933 -1980 -2037 -2106 0
-1688 -1863 -1933 -2114 0
-1688 -1859 -1941 -1964 -1984 0
-1688 -1859 -1941 -1984 0
-1688 -1838 -1984 -2037 -2106 0
-1688 -1838 -1859 -1984 -2049 -2106 0
-1688 -1859 -1941 -1984 -2036 0
-1688 -1859 -1941 -1977 -2106 0
-1688 -1838 -1977 -2114 0
-1688 -1977 -1980 -2106 0
-1688 -1859 -1863 -1977 -1980 -2106 0
-1714 -2106 0
-1714 -1911 -1964 0
-1714 -2020 0
-1714 -1977 -1980 -2106 0
-1681 -1714 0
-1681 -1714 -1739 0
-1681 -1714 -1964 0
-1674 -1681 -1714 0
-1674 -1681 -1714 -1739 0
-1681 -1714 -1827 0
-1681 -1714 -1739 -1827 0
-1681 -1714 -1827 -1964 0
-1714 -1838 -1980 -2106 0
-1714 -1941 -2106 0
-1714 -1911 -1941 -1964 0
-1714 -1941 -2020 0
-1681 -1827 -1886 0
-1595 -1791 -1975 0
-1681 -1827 -1871 -1886 0
-1595 -1791 -1975 -2125 0
-1681 -1719 -1827 -1886 0
-1595 -1791 -1975 -2163 0
-1681 -1827 -1859 -1870 -1886 0
-1595 -1791 -1975 -2064 -2110 0
-1681 -1719 -1776 -1827 -1859 -1886 0
-1595 -1791 -1975 -2064 -2089 -2163 0
-1661 -2047 0
-1866 -1950 0
-1666 -2047 0
-1869 -1950 0
-1695 -1848 -2047 0
-1950 -1976 -2050 0
-1752 -2047 0
-1770 -1950 0
-1731 -2047 0
-1707 -1950 0
-1666 -1827 -2047 0
-1791 -1869 -1950 0
-1679 -1732 -2047 0
-1711 -1877 -1950 0
-1661 -1969 -2047 0
-1696 -1866 -1950 0
-1695 -1905 -2047 0
-1844 -1950 -2050 0
-1905 -2047 0
-1844 -1950 0
-1763 -1905 -2047 0
-1844 -1937 -1950 0
-1666 -1886 -1954 -2047 0
-1595 -1689 -1869 -1950 0
-1695 -1848 -1886 -1954 -2047 0
-1595 -1689 -1950 -1976 -2050 0
-1752 -1886 -1954 -2047 0
-1595 -1689 -1770 -1950 0
-1666 -1886 -2015 -2047 0
-1595 -1664 -1869 -1950 0
-1666 -1886 -1905 -2029 -2047 0
-1595 -1761 -1844 -1869 -1950 0
-1666 -2015 -2047 -2064 0
-1572 -1664 -1869 -1950 0
-1695 -1848 -2015 -2047 -2064 0
-1572 -1664 -1950 -1976 -2050 0
-1752 -2015 -2047 -2064 0
-1572 -1664 -1770 -1950 0
-1661 -2029 -2047 0
-1761 -1866 -1950 0
-1731 -2029 -2047 0
-1707 -1761 -1950 0
-1666 -1827 -2029 -2047 0
-1761 -1791 -1869 -1950 0
-1679 -1732 -2029 -2047 0
-1711 -1761 -1877 -1950 0
-1661 -1969 -2029 -2047 0
-1696 -1761 -1866 -1950 0
-1661 -1954 -2015 -2047 0
-1664 -1689 -1866 -1950 0
-1666 -2015 -2026 -2047 0
-1664 -1754 -1869 -1950 0
-1695 -1848 -2015 -2026 -2047 0
-1664 -1754 -1950 -1976 -2050 0
-1752 -2015 -2026 -2047 0
-1664 -1754 -1770 -1950 0
-1666 -1886 -1905 -1973 -2026 -2047 0
-1595 -1754 -1844 -1869 -1912 -1950 0
-1661 -2015 -2026 -2047 0
-1664 -1754 -1866 -1950 0
-1695 -1916 -2029 -2047 -2064 0
-1572 -1761 -1853 -1950 -2050 0
-1916 -2029 -2047 -2064 0
-1572 -1761 -1853 -1950 0
-1666 -1886 -1916 -1973 -2047 0
-1595 -1853 -1869 -1912 -1950 0
-1666 -1916 -1969 -1973 -2047 -2064 0
-1572 -1696 -1853 -1869 -1912 -1950 0
-1763 -1916 -2029 -2047 -2064 0
-1572 -1761 -1853 -1937 -1950 0
-1666 -1913 -2029 -2047 -2064 0
-1572 -1761 -1839 -1869 -1950 0
-1661 -1913 -1973 -2047 0
-1839 -1866 -1912 -1950 0
-1666 -1905 -1913 -2047 0
-1839 -1844 -1869 -1950 0
-1666 -1905 -1913 -2015 -2047 -2064 0
-1572 -1664 -1839 -1844 -1869 -1950 0
-1666 -2155 0
-1734 -1869 0
-1695 -1848 -2155 0
-1734 -1976 -2050 0
-1752 -2155 0
-1734 -1770 0
-1666 -1905 -1913 -2155 0
-1734 -1839 -1844 -1869 0
-1975 -2155 0
-1734 -1907 0
-1719 -1975 -2155 0
-1734 -1907 -2163 0
-1695 -1975 -2155 0
-1734 -1907 -2050 0
-1871 -1975 -2155 0
-1734 -1907 -2125 0
-1719 -1871 -1975 -2155 0
-1734 -1907 -2125 -2163 0
-1791 -1975 -2155 0
-1734 -1907 -2096 0
-1719 -1791 -1975 -2155 0
-1734 -1907 -2096 -2163 0
-1695 -1791 -1975 -2155 0
-1734 -1907 -2050 -2096 0
-1666 -1905 -1973 -2155 0
-1734 -1844 -1869 -1912 0
-1666 -2029 -2155 0
-1734 -1761 -1869 0
-1695 -1848 -2029 -2155 0
-1734 -1761 -1976 -2050 0
-1752 -2029 -2155 0
-1734 -1761 -1770 0
-1683 -1911 -1984 0
-1683 -1907 -1977 -2106 0
-1683 -2114 0
-1683 -2106 0
-1683 -1859 -2048 -2106 0
-1683 -2037 -2041 -2106 0
-1683 -1980 -2037 -2106 0
-1683 -1859 -1980 -2049 -2106 0
-1683 -1933 -1984 -2037 -2106 0
-1683 -2036 -2114 0
-1683 -2036 -2106 0
-1683 -2036 -2106 -2150 -2160 0
-1683 -1855 -2106 0
-1683 -1855 -1911 -1964 0
-1683 -1855 -2020 0
-1683 -1855 -1941 -2114 0
-1683 -1855 -1941 -2123 -2160 0
-1683 -1855 -1941 -2049 -2114 0
-1683 -1855 -1859 -1863 -2106 0
-1683 -1855 -1859 -1863 -1911 -1964 0
-1683 -1855 -1859 -1863 -2020 0
-1683 -1855 -1863 -2048 -2114 0
-1683 -1907 -1912 -2114 0
-1683 -1907 -1912 -2106 0
-1683 -1859 -1907 -1912 -2048 -2106 0
-1683 -1907 -1912 -2037 -2041 -2106 0
-1701 -1754 -2114 0
-1701 -1754 -2106 0
-1701 -1754 -1859 -2048 -2106 0
-1701 -1754 -2037 -2041 -2106 0
-1701 -1754 -1980 -2037 -2106 0
-1701 -1754 -1859 -1980 -2049 -2106 0
-1701 -1754 -1933 -1984 -2037 -2106 0
-1701 -1754 -2036 -2114 0
-1701 -1754 -2036 -2106 0
-1701 -1754 -2036 -2106 -2150 -2160 0
-1664 -1690 -1863 -1907 -2037 -2106 0
-1848 -1916 -2044 0
-1853 -1958 -1976 0
-1666 -1681 -1913 -2044 0
-1839 -1869 -1958 -1975 0
-1661 -2044 0
-1866 -1958 0
-1666 -2044 0
-1869 -1958 0
-1666 -1954 -2044 -2064 0
-1572 -1689 -1869 -1958 0
-1666 -1815 -1886 -2044 0
-1595 -1686 -1869 -1958 0
-1666 -1886 -1905 -2044 0
-1595 -1844 -1869 -1958 0
-1666 -1905 -1969 -2044 -2064 0
-1572 -1696 -1844 -1869 -1958 0
-1666 -1886 -1916 -2026 -2044 0
-1595 -1754 -1853 -1869 -1958 0
-1661 -1763 -2044 0
-1866 -1937 -1958 0
-1666 -1763 -2044 0
-1869 -1937 -1958 0
-1666 -1729 -1732 -1763 -2044 0
-1711 -1712 -1869 -1937 -1958 0
-1666 -1989 -2044 0
-1869 -1923 -1958 0
-1695 -1848 -1989 -2044 0
-1923 -1958 -1976 -2050 0
-1752 -1989 -2044 0
-1770 -1923 -1958 0
-1661 -1989 -2029 -2044 0
-1761 -1866 -1923 -1958 0
-1679 -1732 -1989 -2029 -2044 0
-1711 -1761 -1877 -1923 -1958 0
-1661 -1969 -1989 -2029 -2044 0
-1696 -1761 -1866 -1923 -1958 0
-1666 -1989 -2015 -2044 -2064 0
-1572 -1664 -1869 -1923 -1958 0
-1695 -1848 -1989 -2015 -2044 -2064 0
-1572 -1664 -1923 -1958 -1976 -2050 0
-1752 -1989 -2015 -2044 -2064 0
-1572 -1664 -1770 -1923 -1958 0
-1661 -1954 -1989 -2015 -2044 0
-1664 -1689 -1866 -1923 -1958 0
-1661 -1681 -1838 -2044 0
-1866 -1958 -1973 -1975 0
-1666 -1681 -1838 -2044 0
-1869 -1958 -1973 -1975 0
-1666 -1681 -1838 -1954 -2044 -2064 0
-1572 -1689 -1869 -1958 -1973 -1975 0
-1666 -1681 -1815 -1838 -1886 -2044 0
-1595 -1686 -1869 -1958 -1973 -1975 0
-1661 -1933 -2055 0
-1866 -1967 -2026 0
-1666 -1933 -2055 0
-1869 -1967 -2026 0
-1666 -1933 -1954 -2055 -2064 0
-1572 -1689 -1869 -1967 -2026 0
-1666 -1815 -1886 -1933 -2055 0
-1595 -1686 -1869 -1967 -2026 0
-1666 -1886 -1905 -1933 -2055 0
-1595 -1844 -1869 -1967 -2026 0
-1666 -1905 -1933 -1969 -2055 -2064 0
-1572 -1696 -1844 -1869 -1967 -2026 0
-1666 -1886 -1916 -1933 -2026 -2055 0
-1595 -1754 -1853 -1869 -1967 -2026 0
-1661 -1763 -1933 -2055 0
-1866 -1937 -1967 -2026 0
-1666 -1763 -1933 -2055 0
-1869 -1937 -1967 -2026 0
-1666 -1729 -1732 -1763 -1933 -2055 0
-1711 -1712 -1869 -1937 -1967 -2026 0
-1666 -1681 -1863 -1886 -2015 -2038 0
-1595 -1664 -1869 -1951 -1975 -2015 0
-1683 -2109 0
-1683 -1988 -2109 0
-1683 -2036 -2109 0
-1683 -1907 -1912 -2109 0
-1701 -1754 -2109 0
-1701 -1754 -1988 -2109 0
-1701 -1754 -2036 -2109 0
-1663 -2044 0
-1703 -1958 0
-1663 -1922 -2044 0
-1703 -1857 -1958 0
-1663 -1763 -2044 0
-1703 -1937 -1958 0
-1663 -1681 -1838 -2044 0
-1703 -1958 -1973 -1975 0
-1663 -1933 -2055 0
-1703 -1967 -2026 0
-1663 -1922 -1933 -2055 0
-1703 -1857 -1967 -2026 0
-1663 -1763 -1933 -2055 0
-1703 -1937 -1967 -2026 0
-1683 -2108 0
-1683 -2036 -2108 0
-1683 -1911 -1912 -2108 0
-1701 -1754 -2108 0
-1701 -1754 -2036 -2108 0
-1531 -2044 0
-1864 -1958 0
-1531 -1763 -2044 0
-1864 -1937 -1958 0
-1531 -1838 -1848 -2044 0
-1864 -1958 -1973 -1976 0
-1531 -1933 -2055 0
-1864 -1967 -2026 0
-1531 -1763 -1933 -2055 0
-1864 -1937 -1967 -2026 0
-1683 -2105 0
-1683 -1988 -2105 0
-1683 -2036 -2105 0
-1683 -1907 -1912 -2105 0
-1701 -1754 -2105 0
-1701 -1754 -1988 -2105 0
-1701 -1754 -2036 -2105 0
-1662 -2044 0
-1868 -1958 0
-1662 -1922 -2044 0
-1857 -1868 -1958 0
-1662 -1763 -2044 0
-1868 -1937 -1958 0
-1662 -1681 -1838 -2044 0
-1868 -1958 -1973 -1975 0
-1662 -1933 -2055 0
-1868 -1967 -2026 0
-1662 -1922 -1933 -2055 0
-1857 -1868 -1967 -2026 0
-1662 -1763 -1933 -2055 0
-1868 -1937 -1967 -2026 0
-1683 -1907 -1977 -2115 0
-1683 -2115 0
-1683 -1859 -2048 -2115 0
-1683 -2037 -2041 -2115 0
-1683 -1980 -2037 -2115 0
-1683 -1859 -1980 -2049 -2115 0
-1683 -2036 -2115 0
-1683 -1907 -1912 -2115 0
-1683 -1859 -1907 -1912 -2048 -2115 0
-1683 -1907 -1912 -2037 -2041 -2115 0
-1701 -1754 -2115 0
-1701 -1754 -1859 -2048 -2115 0
-1701 -1754 -2037 -2041 -2115 0
-1701 -1754 -1980 -2037 -2115 0
-1701 -1754 -1859 -1980 -2049 -2115 0
-1701 -1754 -2036 -2115 0
-1664 -1690 -1863 -1907 -2037 -2115 0
-1665 -1681 -1913 -2044 0
-1839 -1867 -1958 -1975 0
-1665 -2044 0
-1867 -1958 0
-1665 -1954 -2044 -2064 0
-1572 -1689 -1867 -1958 0
-1665 -1815 -1886 -2044 0
-1595 -1686 -1867 -1958 0
-1665 -1886 -1905 -2044 0
-1595 -1844 -1867 -1958 0
-1665 -1905 -1969 -2044 -2064 0
-1572 -1696 -1844 -1867 -1958 0
-1665 -1763 -2044 0
-1867 -1937 -1958 0
-1665 -1681 -1838 -2044 0
-1867 -1958 -1973 -1975 0
-1665 -1681 -1838 -1954 -2044 -2064 0
-1572 -1689 -1867 -1958 -1973 -1975 0
-1665 -1681 -1815 -1838 -1886 -2044 0
-1595 -1686 -1867 -1958 -1973 -1975 0
-1665 -1933 -2055 0
-1867 -1967 -2026 0
-1665 -1933 -1954 -2055 -2064 0
-1572 -1689 -1867 -1967 -2026 0
-1665 -1815 -1886 -1933 -2055 0
-1595 -1686 -1867 -1967 -2026 0
-1665 -1886 -1905 -1933 -2055 0
-1595 -1844 -1867 -1967 -2026 0
-1665 -1905 -1933 -1969 -2055 -2064 0
-1572 -1696 -1844 -1867 -1967 -2026 0
-1665 -1763 -1933 -2055 0
-1867 -1937 -1967 -2026 0
-1665 -1681 -1863 -1886 -2015 -2038 0
-1595 -1664 -1867 -1951 -1975 -2015 0
-1683 -2112 0
-1683 -2036 -2112 0
-1683 -1911 -1912 -2112 0
-1701 -1754 -2112 0
-1701 -1754 -2036 -2112 0
-1670 -2044 0
-1865 -1958 0
-1670 -1763 -2044 0
-1865 -1937 -1958 0
-1670 -1838 -1848 -2044 0
-1865 -1958 -1973 -1976 0
-1670 -1933 -2055 0
-1865 -1967 -2026 0
-1670 -1763 -1933 -2055 0
-1865 -1937 -1967 -2026 0
-1838 -1918 0
-1838 -1859 -1863 -1918 0
-1918 -1988 -2037 0
-1859 -1918 -1988 -2049 0
-1918 -1933 -1977 -2037 0
-1907 0
-1859 -1907 -2048 0
-1907 -2037 -2041 0
-1907 -2119 0
-1674 -1838 -1918 0
-1674 -1838 -1859 -1863 -1918 0
-1674 -1918 -1988 -2037 0
-1674 -1859 -1918 -1988 -2049 0
-1674 -1918 -1933 -1977 -2037 0
-1674 -1907 0
-1674 -1859 -1907 -2048 0
-1674 -1907 -2037 -2041 0
-1674 -1907 -2119 0
-2019 -2119 0
-2108 0
-1907 -1955 -2108 0
-1739 -1838 -1918 0
-1739 -1838 -1859 -1863 -1918 0
-1739 -1918 -1988 -2037 0
-1739 -1859 -1918 -1988 -2049 0
-1739 -1918 -1933 -1977 -2037 0
-1739 -1907 0
-1739 -1859 -1907 -2048 0
-1739 -1907 -2037 -2041 0
-1739 -1907 -2119 0
-1732 -1735 -2019 -2119 0
-1732 -1735 -2108 0
-1732 -1735 -1907 -1955 -2108 0
-2036 -2108 0
-1827 -2019 -2119 0
-1827 -2108 0
-1827 -1907 -1955 -2108 0
-1912 -1933 -2154 0
-1664 -1732 -2019 -2119 0
-1664 -1732 -2108 0
-1664 -1732 -1907 -1955 -2108 0
-1572 -1826 -2019 -2119 0
-1572 -1826 -2108 0
-1572 -1826 -1907 -1955 -2108 0
-1572 -1667 -1838 -1918 0
-1572 -1667 -1838 -1859 -1863 -1918 0
-1572 -1667 -1918 -1988 -2037 0
-1572 -1667 -1859 -1918 -1988 -2049 0
-1572 -1667 -1918 -1933 -1977 -2037 0
-1572 -1667 -1907 0
-1572 -1667 -1859 -1907 -2048 0
-1572 -1667 -1907 -2037 -2041 0
-1572 -1667 -1907 -2119 0
-1572 -1667 -2019 -2119 0
-1572 -1667 -2108 0
-1572 -1667 -1907 -1955 -2108 0
-1572 -1732 -2019 -2119 0
-1572 -1732 -2108 0
-1572 -1732 -1907 -1955 -2108 0
-1572 -1739 -1826 -1838 -1918 0
-1572 -1739 -1826 -1838 -1859 -1863 -1918 0
-1572 -1739 -1826 -1918 -1988 -2037 0
-1572 -1739 -1826 -1859 -1918 -1988 -2049 0
-1572 -1739 -1826 -1918 -1933 -1977 -2037 0
-1572 -1739 -1826 -1907 0
-1572 -1739 -1826 -1859 -1907 -2048 0
-1572 -1739 -1826 -1907 -2037 -2041 0
-1572 -1739 -1826 -1907 -2119 0
-1572 -1664 -2108 0
-1572 -1664 -2036 -2108 0
-1572 -1664 -1827 -2019 -2119 0
-1572 -1664 -1827 -2108 0
-1572 -1664 -1827 -1907 -1955 -2108 0
-1572 -1664 -1912 -1933 -2154 0
-1572 -1754 -2108 0
-1572 -1754 -2036 -2108 0
-1911 -1912 -2108 0
-1911 -1964 0
-2020 0
-2154 0
-1980 0
-1964 -1980 0
-1980 -2036 0
-1911 -1964 -2037 -2048 0
-2020 -2037 -2048 0
-1859 -1863 -1911 -1964 0
-1859 -1863 -2020 0
-1941 -2154 0
-1849 -2108 0
-1849 -2036 -2108 0
-1863 -1911 -1933 -1964 0
-1863 -1933 -2020 0
-1787 -1911 -1964 0
-1787 -2020 0
-1776 -1779 -1911 -1964 0
-1776 -1779 -2020 0
-1776 -1779 -2154 0
-1776 -1779 -1980 0
-1776 -1779 -1964 -1980 0
-1776 -1779 -1980 -2036 0
-1776 -1779 -1911 -1964 -2037 -2048 0
-1776 -1779 -2020 -2037 -2048 0
-1595 -1664 -1838 0
-1595 -1664 -1838 -1964 0
-1595 -1664 -1838 -1911 -1980 0
-1595 -1664 -1838 -2037 -2048 0
-1595 -1664 -1838 -1964 -2037 -2048 0
-1595 -1664 -1941 -1988 -2037 0
-1595 -1664 -1941 -1964 -1988 -2037 0
-1595 -1664 -1863 -1911 -2037 0
-1595 -1664 -1863 -1964 -2019 -2037 0
-1595 -1664 -1863 -1907 -2037 0
-1595 -1664 -1863 -2015 -2037 0
-1595 -1664 -1863 -1964 -2015 -2037 0
-1595 -1754 -2108 0
-1595 -1754 -2036 -2108 0
-1695 -1911 -1964 0
-1695 -2020 0
-1695 -2154 0
-1695 -1980 0
-1695 -1964 -1980 0
-1695 -1980 -2036 0
-1695 -1911 -1964 -2037 -2048 0
-1695 -2020 -2037 -2048 0
-1695 -1941 -2154 0
-1695 -1859 -1863 -1911 -1964 0
-1695 -1859 -1863 -2020 0
-1695 -1849 -2108 0
-1695 -1849 -2036 -2108 0
-1695 -1863 -1911 -1933 -1964 0
-1695 -1863 -1933 -2020 0
-1695 -2108 0
-1695 -2036 -2108 0
-1695 -1911 -1912 -2108 0
-1695 -1779 0
-1695 -1739 -1779 0
-1695 -1779 -1964 0
-1674 -1695 -1779 0
-1674 -1695 -1739 -1779 0
-1695 -1779 -1827 0
-1695 -1739 -1779 -1827 0
-1695 -1779 -1827 -1964 0
-1595 -1711 -1911 -1964 0
-1595 -1711 -2020 0
-1595 -1711 -1980 0
-1595 -1711 -1964 -1980 0
-1595 -1711 -1980 -2036 0
-1595 -1711 -2154 0
-1595 -1711 -1911 -1964 -2049 0
-1595 -1711 -2020 -2049 0
-1595 -1711 -2049 -2154 0
-1595 -1711 -1871 -1911 -1964 0
-1595 -1711 -1871 -2020 0
-1595 -1711 -1871 -2154 0
-1595 -1711 -1871 -1980 0
-1595 -1711 -1871 -1964 -1980 0
-1595 -1711 -1871 -1980 -2036 0
-1595 -1711 -1871 -1911 -1964 -2037 -2048 0
-1595 -1711 -1871 -2020 -2037 -2048 0
-1595 -1776 -1911 -1964 0
-1595 -1776 -2020 0
-1595 -1776 -2154 0
-1595 -1776 -1980 0
-1595 -1776 -1964 -1980 0
-1595 -1776 -1980 -2036 0
-1595 -1776 -1911 -1964 -2037 -2048 0
-1595 -1776 -2020 -2037 -2048 0
-1681 0
-1681 -1739 0
-1681 -1964 0
-1674 -1681 0
-1674 -1681 -1739 0
-1681 -1827 0
-1681 -1739 -1827 0
-1681 -1827 -1964 0
-1849 -1911 -1964 0
-1849 -2020 0
-1911 -1941 -1964 0
-1941 -2020 0
-1911 -1964 -2049 0
-2020 -2049 0
-2049 -2154 0
-1871 -1911 -1964 0
-1871 -2020 0
-1871 -2154 0
-1871 -1980 0
-1871 -1964 -1980 0
-1871 -1980 -2036 0
-1871 -1911 -1964 -2037 -2048 0
-1871 -2020 -2037 -2048 0
-1859 -1870 -1911 -1964 0
-1859 -1870 -2020 0
-1681 -1859 -1870 0
-1681 -1739 -1859 -1870 0
-1681 -1859 -1870 -1964 0
-1674 -1681 -1859 -1870 0
-1674 -1681 -1739 -1859 -1870 0
-1681 -1827 -1859 -1870 0
-1681 -1739 -1827 -1859 -1870 0
-1681 -1827 -1859 -1870 -1964 0
-1849 -1859 -1870 -1911 -1964 0
-1849 -1859 -1870 -2020 0
-1859 -1870 -1911 -1941 -1964 0
-1859 -1870 -1941 -2020 0
-1720 -1911 -1964 0
-1720 -2020 0
-1681 -1720 0
-1681 -1720 -1739 0
-1681 -1720 -1964 0
-1674 -1681 -1720 0
-1674 -1681 -1720 -1739 0
-1681 -1720 -1827 0
-1681 -1720 -1739 -1827 0
-1681 -1720 -1827 -1964 0
-1720 -1849 -1911 -1964 0
-1720 -1849 -2020 0
-1720 -1911 -1941 -1964 0
-1720 -1941 -2020 0
-1720 -2154 0
-1720 -1980 0
-1720 -1964 -1980 0
-1720 -1980 -2036 0
-1720 -1911 -1964 -2037 -2048 0
-1720 -2020 -2037 -2048 0
-1720 -1911 -1964 -2049 0
-1720 -2020 -2049 0
-1720 -2049 -2154 0
-1720 -1871 -1911 -1964 0
-1720 -1871 -2020 0
-1720 -1871 -2154 0
-1720 -1871 -1980 0
-1720 -1871 -1964 -1980 0
-1720 -1871 -1980 -2036 0
-1720 -1871 -1911 -1964 -2037 -2048 0
-1720 -1871 -2020 -2037 -2048 0
-1720 -1776 -1859 -1911 -1964 0
-1720 -1776 -1859 -2020 0
-1681 -1720 -1776 -1859 0
-1681 -1720 -1739 -1776 -1859 0
-1681 -1720 -1776 -1859 -1964 0
-1674 -1681 -1720 -1776 -1859 0
-1674 -1681 -1720 -1739 -1776 -1859 0
-1681 -1720 -1776 -1827 -1859 0
-1681 -1720 -1739 -1776 -1827 -1859 0
-1681 -1720 -1776 -1827 -1859 -1964 0
-1720 -1776 -1849 -1859 -1911 -1964 0
-1720 -1776 -1849 -1859 -2020 0
-1720 -1776 -1859 -1911 -1941 -1964 0
-1720 -1776 -1859 -1941 -2020 0
-1720 -1787 -1859 0
-1720 -1739 -1787 -1859 0
-1720 -1787 -1859 -1964 0
-1674 -1720 -1787 -1859 0
-1674 -1720 -1739 -1787 -1859 0
-1720 -1787 -1827 -1859 0
-1720 -1739 -1787 -1827 -1859 0
-1720 -1787 -1827 -1859 -1964 0
-1720 -1761 -1787 -1859 0
-1720 -1739 -1761 -1787 -1859 0
-1664 -1720 -1754 -1787 -1859 0
-1664 -1720 -1754 -1787 -1859 -1964 0
-1720 -1779 -1859 -1911 -1964 0
-1720 -1779 -1859 -2020 0
-1681 -1871 0
-1681 -1739 -1871 0
-1681 -1871 -1964 0
-1674 -1681 -1871 0
-1674 -1681 -1739 -1871 0
-1681 -1827 -1871 0
-1681 -1739 -1827 -1871 0
-1681 -1827 -1871 -1964 0
-1849 -1871 -1911 -1964 0
-1849 -1871 -2020 0
-1871 -1911 -1941 -1964 0
-1871 -1941 -2020 0
-1871 -1911 -1964 -2049 0
-1871 -2020 -2049 0
-1871 -2049 -2154 0
-1849 -1973 0
-1912 -1991 0
-1849 -1973 -2015 -2064 0
-1572 -1664 -1912 -1991 0
-1849 -1886 -1922 0
-1595 -1857 -1991 0
-1849 -1922 -1969 -2064 0
-1572 -1696 -1857 -1991 0
-1849 -1886 -1913 -2026 0
-1595 -1754 -1839 -1991 0
-1975 0
-1681 -1954 -2064 0
-1572 -1689 -1975 0
-1681 -1815 -1886 0
-1595 -1686 -1975 0
-1671 -1681 0
-1880 -1975 0
-1849 -1871 -1973 0
-1912 -1991 -2125 0
-1849 -1871 -1973 -2015 -2064 0
-1572 -1664 -1912 -1991 -2125 0
-1849 -1871 -1886 -1922 0
-1595 -1857 -1991 -2125 0
-1849 -1871 -1922 -1969 -2064 0
-1572 -1696 -1857 -1991 -2125 0
-1849 -1871 -1886 -1913 -2026 0
-1595 -1754 -1839 -1991 -2125 0
-1975 -2125 0
-1681 -1871 -1954 -2064 0
-1572 -1689 -1975 -2125 0
-1681 -1815 -1871 -1886 0
-1595 -1686 -1975 -2125 0
-1671 -1681 -1871 0
-1880 -1975 -2125 0
-1568 -1671 0
-1880 -1930 0
-1531 0
-1864 0
-1531 -1681 -1691 0
-1864 -1975 -2039 0
-1719 -1849 -1973 0
-1912 -1991 -2163 0
-1719 -1849 -1973 -2015 -2064 0
-1572 -1664 -1912 -1991 -2163 0
-1719 -1849 -1886 -1922 0
-1595 -1857 -1991 -2163 0
-1719 -1849 -1922 -1969 -2064 0
-1572 -1696 -1857 -1991 -2163 0
-1719 -1849 -1886 -1913 -2026 0
-1595 -1754 -1839 -1991 -2163 0
-1681 -1719 0
-1975 -2163 0
-1681 -1719 -1954 -2064 0
-1572 -1689 -1975 -2163 0
-1681 -1719 -1815 -1886 0
-1595 -1686 -1975 -2163 0
-1671 -1681 -1719 0
-1880 -1975 -2163 0
-1568 -1671 -1704 -1711 0
-1880 -1930 -2152 -2160 0
-1531 -1704 -1711 0
-1864 -2152 -2160 0
-1531 -1681 -1691 -1704 -1711 0
-1864 -1975 -2039 -2152 -2160 0
-1531 -1763 0
-1864 -1937 0
-1568 -1671 -1791 0
-1880 -1930 -2096 0
-1531 -1791 0
-1864 -2096 0
-1531 -1681 -1691 -1791 0
-1864 -1975 -2039 -2096 0
-1730 -1838 -2026 0
-1537 -1754 -1973 0
-1568 -1671 -1711 -1863 0
-1880 -1930 -2015 -2160 0
-1531 -1711 -1863 0
-1864 -2015 -2160 0
-1531 -1681 -1691 -1711 -1863 0
-1864 -1975 -2015 -2039 -2160 0
-1568 -1671 -1776 -1859 0
-1880 -1930 -2064 -2089 0
-1531 -1776 -1859 0
-1864 -2064 -2089 0
-1531 -1681 -1691 -1776 -1859 0
-1864 -1975 -2039 -2064 -2089 0
-1849 -1859 -1870 -1973 0
-1912 -1991 -2064 -2110 0
-1849 -1859 -1870 -1973 -2015 -2064 0
-1572 -1664 -1912 -1991 -2064 -2110 0
-1849 -1859 -1870 -1886 -1922 0
-1595 -1857 -1991 -2064 -2110 0
-1849 -1859 -1870 -1922 -1969 -2064 0
-1572 -1696 -1857 -1991 -2064 -2110 0
-1849 -1859 -1870 -1886 -1913 -2026 0
-1595 -1754 -1839 -1991 -2064 -2110 0
-1975 -2064 -2110 0
-1681 -1859 -1870 -1954 -2064 0
-1572 -1689 -1975 -2064 -2110 0
-1681 -1815 -1859 -1870 -1886 0
-1595 -1686 -1975 -2064 -2110 0
-1671 -1681 -1859 -1870 0
-1880 -1975 -2064 -2110 0
-1568 -1671 -1859 -1870 0
-1880 -1930 -2064 -2110 0
-1531 -1859 -1870 0
-1864 -2064 -2110 0
-1531 -1681 -1691 -1859 -1870 0
-1864 -1975 -2039 -2064 -2110 0
-1568 -1671 -1711 -1859 0
-1880 -1930 -2064 -2160 0
-1531 -1711 -1859 0
-1864 -2064 -2160 0
-1531 -1681 -1691 -1711 -1859 0
-1864 -1975 -2039 -2064 -2160 0
-1719 -1776 -1849 -1859 -1973 0
-1912 -1991 -2064 -2089 -2163 0
-1719 -1776 -1849 -1859 -1973 -2015 -2064 0
-1572 -1664 -1912 -1991 -2064 -2089 -2163 0
-1719 -1776 -1849 -1859 -1886 -1922 0
-1595 -1857 -1991 -2064 -2089 -2163 0
-1719 -1776 -1849 -1859 -1922 -1969 -2064 0
-1572 -1696 -1857 -1991 -2064 -2089 -2163 0
-1719 -1776 -1849 -1859 -1886 -1913 -2026 0
-1595 -1754 -1839 -1991 -2064 -2089 -2163 0
-1681 -1719 -1776 -1859 0
-1975 -2064 -2089 -2163 0
-1681 -1719 -1776 -1859 -1954 -2064 0
-1572 -1689 -1975 -2064 -2089 -2163 0
-1681 -1719 -1776 -1815 -1859 -1886 0
-1595 -1686 -1975 -2064 -2089 -2163 0
-1671 -1681 -1719 -1776 -1859 0
-1880 -1975 -2064 -2089 -2163 0
-1531 -1859 -1863 0
-1864 -2015 -2064 0
-1531 -1763 -1859 -1863 0
-1864 -1937 -2015 -2064 0
-1568 -1671 -1791 -1859 -1863 0
-1880 -1930 -2015 -2064 -2096 0
-1531 -1791 -1859 -1863 0
-1864 -2015 -2064 -2096 0
-1531 -1681 -1691 -1791 -1859 -1863 0
-1864 -1975 -2015 -2039 -2064 -2096 0
-1730 -1838 -1859 -1863 -2026 0
-1537 -1754 -1973 -2015 -2064 0
-1531 -1859 -1933 0
-1864 -2026 -2064 0
-1531 -1763 -1859 -1933 0
-1864 -1937 -2026 -2064 0
-1531 -1838 -1848 0
-1864 -1973 -1976 0
-1695 -1848 0
-1976 -2050 0
-1752 0
-1770 0
-1730 0
-1537 0
-1905 0
-1844 0
-1695 -1905 0
-1844 -2050 0
-1763 -1905 0
-1844 -1937 0
-1695 -1848 -1886 -1954 0
-1595 -1689 -1976 -2050 0
-1752 -1886 -1954 0
-1595 -1689 -1770 0
-1695 -1848 -2015 -2064 0
-1572 -1664 -1976 -2050 0
-1752 -2015 -2064 0
-1572 -1664 -1770 0
-1730 -2029 0
-1537 -1761 0
-1531 -1991 0
-1864 -1918 0
-1531 -1763 -1991 0
-1864 -1918 -1937 0
-1695 -1848 -2015 -2026 0
-1664 -1754 -1976 -2050 0
-1752 -2015 -2026 0
-1664 -1754 -1770 0
-1695 -1848 -2098 0
-1832 -1976 -2050 0
-1752 -2098 0
-1770 -1832 0
-1695 -1848 -2082 -2089 0
-1818 -1826 -1976 -2050 0
-1752 -2082 -2089 0
-1770 -1818 -1826 0
-1730 -2082 -2089 0
-1537 -1818 -1826 0
-1905 -2082 -2089 0
-1818 -1826 -1844 0
-1695 -1905 -2082 -2089 0
-1818 -1826 -1844 -2050 0
-1763 -1905 -2082 -2089 0
-1818 -1826 -1844 -1937 0
-1695 -1848 -1886 -1954 -2082 -2089 0
-1595 -1689 -1818 -1826 -1976 -2050 0
-1752 -1886 -1954 -2082 -2089 0
-1595 -1689 -1770 -1818 -1826 0
-1863 -1973 -2037 0
-1886 -1912 -2015 0
-1695 -1863 -1973 -2037 0
-1886 -1912 -2015 -2050 0
-1848 -1863 -1905 -1973 -2037 0
-1844 -1886 -1912 -1976 -2015 0
-1863 -1886 -1954 -1973 -2037 0
-1595 -1689 -1886 -1912 -2015 0
-1695 -1863 -1886 -1954 -1973 -2037 0
-1595 -1689 -1886 -1912 -2015 -2050 0
-1863 -1886 -1922 -2029 -2037 0
-1595 -1761 -1857 -1886 -2015 0
-1695 -1863 -1886 -1922 -2029 -2037 0
-1595 -1761 -1857 -1886 -2015 -2050 0
-1848 -1863 -1886 -2015 -2037 0
-1595 -1664 -1886 -1976 -2015 0
-1568 -1695 -1863 -1886 -2015 -2037 0
-1595 -1664 -1886 -1930 -2015 -2050 0
-1681 -1863 -1886 -2015 -2037 0
-1595 -1664 -1886 -1975 -2015 0
-1664 -1863 -1886 -2015 -2037 0
-1595 -1664 -1863 -1886 -2015 0
-1664 -1695 -1863 -1886 -2015 -2037 0
-1595 -1664 -1863 -1886 -2015 -2050 0
-1531 -1933 -2037 0
-1864 -1886 -2026 0
-1531 -1763 -1933 -2037 0
-1864 -1886 -1937 -2026 0
-1695 -1848 -2050 0
-1964 -1976 -2050 0
-1752 -2050 0
-1770 -1964 0
-1730 -2050 0
-1537 -1964 0
-1905 -2050 0
-1844 -1964 0
-1695 -1905 -2050 0
-1844 -1964 -2050 0
-1763 -1905 -2050 0
-1844 -1937 -1964 0
-1695 -1848 -1886 -1954 -2050 0
-1595 -1689 -1964 -1976 -2050 0
-1752 -1886 -1954 -2050 0
-1595 -1689 -1770 -1964 0
-1730 -2029 -2050 0
-1537 -1761 -1964 0
-1695 -1848 -2015 -2050 -2064 0
-1572 -1664 -1964 -1976 -2050 0
-1752 -2015 -2050 -2064 0
-1572 -1664 -1770 -1964 0
-1531 -1991 -2050 0
-1864 -1918 -1964 0
-1531 -1763 -1991 -2050 0
-1864 -1918 -1937 -1964 0
-1695 -1848 -2015 -2026 -2050 0
-1664 -1754 -1964 -1976 -2050 0
-1752 -2015 -2026 -2050 0
-1664 -1754 -1770 -1964 0
-1531 -2050 0
-1864 -1964 0
-1531 -1763 -2050 0
-1864 -1937 -1964 0
-1531 -1838 -1848 -2050 0
-1864 -1964 -1973 -1976 0
-2050 -2082 0
-1818 -1964 0
-1719 -2050 -2082 0
-1818 -1964 -2163 0
-1695 -2050 -2082 0
-1818 -1964 -2050 0
-1871 -2050 -2082 0
-1818 -1964 -2125 0
-1719 -1871 -2050 -2082 0
-1818 -1964 -2125 -2163 0
-1791 -2050 -2082 0
-1818 -1964 -2096 0
-1719 -1791 -2050 -2082 0
-1818 -1964 -2096 -2163 0
-1695 -1791 -2050 -2082 0
-1818 -1964 -2050 -2096 0
-1695 -1848 -2037 -2160 0
-1732 -1886 -1976 -2050 0
-1752 -2037 -2160 0
-1732 -1770 -1886 0
-1905 -2037 -2160 0
-1732 -1844 -1886 0
-1695 -1905 -2037 -2160 0
-1732 -1844 -1886 -2050 0
-1763 -1905 -2037 -2160 0
-1732 -1844 -1886 -1937 0
-1730 -2037 -2160 0
-1537 -1732 -1886 0
-1695 -1848 -1969 -2037 -2160 0
-1696 -1732 -1886 -1976 -2050 0
-1752 -1969 -2037 -2160 0
-1696 -1732 -1770 -1886 0
-1730 -1969 -2037 -2160 0
-1537 -1696 -1732 -1886 0
-1695 -1848 -2037 -2125 -2160 0
-1674 -1732 -1886 -1976 -2050 0
-1752 -2037 -2125 -2160 0
-1674 -1732 -1770 -1886 0
-1730 -2037 -2125 -2160 0
-1537 -1674 -1732 -1886 0
-1905 -2037 -2125 -2160 0
-1674 -1732 -1844 -1886 0
-1695 -1905 -2037 -2125 -2160 0
-1674 -1732 -1844 -1886 -2050 0
-1763 -1905 -2037 -2125 -2160 0
-1674 -1732 -1844 -1886 -1937 0
-1695 -1848 -1886 -1954 -2037 -2125 -2160 0
-1595 -1674 -1689 -1732 -1886 -1976 -2050 0
-1752 -1886 -1954 -2037 -2125 -2160 0
-1595 -1674 -1689 -1732 -1770 -1886 0
-1695 -1848 -2037 -2089 0
-1826 -1886 -1976 -2050 0
-1752 -2037 -2089 0
-1770 -1826 -1886 0
-1730 -2037 -2089 0
-1537 -1826 -1886 0
-1905 -2037 -2089 0
-1826 -1844 -1886 0
-1695 -1905 -2037 -2089 0
-1826 -1844 -1886 -2050 0
-1763 -1905 -2037 -2089 0
-1826 -1844 -1886 -1937 0
-1695 -1848 -1886 -1954 -2037 -2089 0
-1595 -1689 -1826 -1886 -1976 -2050 0
-1752 -1886 -1954 -2037 -2089 0
-1595 -1689 -1770 -1826 -1886 0
-1719 -1975 0
-1907 -2163 0
-1695 -1975 0
-1907 -2050 0
-1871 -1975 0
-1907 -2125 0
-1719 -1871 -1975 0
-1907 -2125 -2163 0
-1791 -1975 0
-1907 -2096 0
-1719 -1791 -1975 0
-1907 -2096 -2163 0
-1695 -1791 -1975 0
-1907 -2050 -2096 0
-1695 -1848 -1991 0
-1918 -1976 -2050 0
-1752 -1991 0
-1770 -1918 0
-1695 -1848 -2029 0
-1761 -1976 -2050 0
-1752 -2029 0
-1761 -1770 0
-1695 -1848 -1969 0
-1696 -1976 -2050 0
-1752 -1969 0
-1696 -1770 0
-1730 -1969 0
-1537 -1696 0
-1695 -1848 -2125 0
-1674 -1976 -2050 0
-1752 -2125 0
-1674 -1770 0
-1730 -2125 0
-1537 -1674 0
-1905 -2125 0
-1674 -1844 0
-1695 -1905 -2125 0
-1674 -1844 -2050 0
-1763 -1905 -2125 0
-1674 -1844 -1937 0
-1695 -1848 -1886 -1954 -2125 0
-1595 -1674 -1689 -1976 -2050 0
-1752 -1886 -1954 -2125 0
-1595 -1674 -1689 -1770 0
-1695 -1848 -2064 -2110 0
-1572 -1667 -1976 -2050 0
-1752 -2064 -2110 0
-1572 -1667 -1770 0
-1719 -1975 -2064 -2110 0
-1572 -1667 -1907 -2163 0
-1695 -1975 -2064 -2110 0
-1572 -1667 -1907 -2050 0
-1871 -1975 -2064 -2110 0
-1572 -1667 -1907 -2125 0
-1719 -1871 -1975 -2064 -2110 0
-1572 -1667 -1907 -2125 -2163 0
-1791 -1975 -2064 -2110 0
-1572 -1667 -1907 -2096 0
-1719 -1791 -1975 -2064 -2110 0
-1572 -1667 -1907 -2096 -2163 0
-1695 -1791 -1975 -2064 -2110 0
-1572 -1667 -1907 -2050 -2096 0
-1695 -1848 -1991 -2064 -2110 0
-1572 -1667 -1918 -1976 -2050 0
-1752 -1991 -2064 -2110 0
-1572 -1667 -1770 -1918 0
-1695 -1848 -2029 -2064 -2110 0
-1572 -1667 -1761 -1976 -2050 0
-1752 -2029 -2064 -2110 0
-1572 -1667 -1761 -1770 0
-1695 -1848 -2166 0
-1743 -1976 -2050 0
-1752 -2166 0
-1743 -1770 0
-1975 -2166 0
-1743 -1907 0
-1719 -1975 -2166 0
-1743 -1907 -2163 0
-1695 -1975 -2166 0
-1743 -1907 -2050 0
-1871 -1975 -2166 0
-1743 -1907 -2125 0
-1719 -1871 -1975 -2166 0
-1743 -1907 -2125 -2163 0
-1791 -1975 -2166 0
-1743 -1907 -2096 0
-1719 -1791 -1975 -2166 0
-1743 -1907 -2096 -2163 0
-1695 -1791 -1975 -2166 0
-1743 -1907 -2050 -2096 0
-1695 -1848 -1991 -2166 0
-1743 -1918 -1976 -2050 0
-1752 -1991 -2166 0
-1743 -1770 -1918 0
-1695 -1848 -2029 -2166 0
-1743 -1761 -1976 -2050 0
-1752 -2029 -2166 0
-1743 -1761 -1770 0
-1730 -2166 0
-1537 -1743 0
-1905 -2166 0
-1743 -1844 0
-1695 -1905 -2166 0
-1743 -1844 -2050 0
-1763 -1905 -2166 0
-1743 -1844 -1937 0
-1695 -1848 -1886 -1954 -2166 0
-1595 -1689 -1743 -1976 -2050 0
-1752 -1886 -1954 -2166 0
-1595 -1689 -1743 -1770 0
-1695 -1848 -1969 -2166 0
-1696 -1743 -1976 -2050 0
-1752 -1969 -2166 0
-1696 -1743 -1770 0
-1730 -1969 -2166 0
-1537 -1696 -1743 0
-1695 -1848 -2125 -2166 0
-1674 -1743 -1976 -2050 0
-1752 -2125 -2166 0
-1674 -1743 -1770 0
-1730 -2125 -2166 0
-1537 -1674 -1743 0
-1905 -2125 -2166 0
-1674 -1743 -1844 0
-1695 -1905 -2125 -2166 0
-1674 -1743 -1844 -2050 0
-1763 -1905 -2125 -2166 0
-1674 -1743 -1844 -1937 0
-1695 -1848 -1886 -1954 -2125 -2166 0
-1595 -1674 -1689 -1743 -1976 -2050 0
-1752 -1886 -1954 -2125 -2166 0
-1595 -1674 -1689 -1743 -1770 0
-1695 -1848 -2064 -2089 -2166 0
-1572 -1743 -1826 -1976 -2050 0
-1752 -2064 -2089 -2166 0
-1572 -1743 -1770 -1826 0
-1975 -2064 -2089 -2166 0
-1572 -1743 -1826 -1907 0
-1719 -1975 -2064 -2089 -2166 0
-1572 -1743 -1826 -1907 -2163 0
-1695 -1975 -2064 -2089 -2166 0
-1572 -1743 -1826 -1907 -2050 0
-1871 -1975 -2064 -2089 -2166 0
-1572 -1743 -1826 -1907 -2125 0
-1719 -1871 -1975 -2064 -2089 -2166 0
-1572 -1743 -1826 -1907 -2125 -2163 0
-1791 -1975 -2064 -2089 -2166 0
-1572 -1743 -1826 -1907 -2096 0
-1719 -1791 -1975 -2064 -2089 -2166 0
-1572 -1743 -1826 -1907 -2096 -2163 0
-1695 -1791 -1975 -2064 -2089 -2166 0
-1572 -1743 -1826 -1907 -2050 -2096 0
-1695 -1848 -1991 -2064 -2089 -2166 0
-1572 -1743 -1826 -1918 -1976 -2050 0
-1752 -1991 -2064 -2089 -2166 0
-1572 -1743 -1770 -1826 -1918 0
-1695 -1848 -2029 -2064 -2089 -2166 0
-1572 -1743 -1761 -1826 -1976 -2050 0
-1752 -2029 -2064 -2089 -2166 0
-1572 -1743 -1761 -1770 -1826 0
-2064 -2098 -2166 0
-1572 -1743 -1832 0
-1719 -2064 -2098 -2166 0
-1572 -1743 -1832 -2163 0
-1695 -2064 -2098 -2166 0
-1572 -1743 -1832 -2050 0
-1871 -2064 -2098 -2166 0
-1572 -1743 -1832 -2125 0
-1719 -1871 -2064 -2098 -2166 0
-1572 -1743 -1832 -2125 -2163 0
-1791 -2064 -2098 -2166 0
-1572 -1743 -1832 -2096 0
-1719 -1791 -2064 -2098 -2166 0
-1572 -1743 -1832 -2096 -2163 0
-1695 -1791 -2064 -2098 -2166 0
-1572 -1743 -1832 -2050 -2096 0
-1941 -2064 -2098 -2166 0
-1572 -1743 -1832 -2029 0
-1719 -1941 -2064 -2098 -2166 0
-1572 -1743 -1832 -2029 -2163 0
-1863 -1933 -2064 -2098 -2166 0
-1572 -1743 -1832 -2015 -2026 0
-1695 -1863 -1933 -2064 -2098 -2166 0
-1572 -1743 -1832 -2015 -2026 -2050 0
-1695 -1848 -2064 -2082 -2166 0
-1572 -1743 -1818 -1976 -2050 0
-1752 -2064 -2082 -2166 0
-1572 -1743 -1770 -1818 0
-1719 -1975 -2125 0
-1674 -1907 -2163 0
-1695 -1975 -2125 0
-1674 -1907 -2050 0
-1871 -1975 -2125 0
-1674 -1907 -2125 0
-1719 -1871 -1975 -2125 0
-1674 -1907 -2125 -2163 0
-1791 -1975 -2125 0
-1674 -1907 -2096 0
-1719 -1791 -1975 -2125 0
-1674 -1907 -2096 -2163 0
-1695 -1791 -1975 -2125 0
-1674 -1907 -2050 -2096 0
-1695 -1848 -1991 -2125 0
-1674 -1918 -1976 -2050 0
-1752 -1991 -2125 0
-1674 -1770 -1918 0
-1695 -1848 -2029 -2125 0
-1674 -1761 -1976 -2050 0
-1752 -2029 -2125 0
-1674 -1761 -1770 0
-1695 -1848 -1969 -2125 0
-1674 -1696 -1976 -2050 0
-1752 -1969 -2125 0
-1674 -1696 -1770 0
-1730 -1969 -2125 0
-1537 -1674 -1696 0
-1695 -1785 -1827 -1886 0
-1595 -1791 -2050 -2093 0
-1836 -1964 -2037 -2096 0
-1572 -1835 -1969 -2112 0
-1572 -1769 -1969 -2112 0
-1572 -1769 -2112 0
-1572 -1769 -2027 -2112 0
-1572 -1769 -2084 0
-1695 -1785 0
-1695 -1739 -1785 0
-1674 -1695 -1785 0
-1674 -1695 -1732 -1785 -1886 0
-1674 -1695 -1739 -1785 0
-1695 -1785 -1826 -1886 0
-1695 -1785 -1835 0
-1695 -1785 -1919 0
-1695 -1846 -2112 -2161 0
-1695 -1846 -1971 0
-1688 -2112 -2161 0
-1688 -1971 0
-1688 -1941 -2112 -2161 0
-1670 -1696 -1788 -1859 0
-1865 -2049 -2064 -2100 0
-1670 -1696 -1859 -1940 0
-1865 -2027 -2049 -2064 0
-1670 -1859 -1940 0
-1865 -2027 -2064 0
-1670 -1769 -1859 -1940 0
-1865 -1940 -2027 -2064 0
-1824 -1859 -1940 0
-1771 -2027 -2064 0
-2050 -2093 0
-1836 -1964 0
-1719 -2050 -2093 0
-1836 -1964 -2163 0
-1871 -2050 -2093 0
-1836 -1964 -2125 0
-1595 -1711 -1871 -2050 -2093 0
-1836 -1964 -2037 -2125 -2160 0
-1719 -1871 -2050 -2093 0
-1836 -1964 -2125 -2163 0
-1595 -1776 -2050 -2093 0
-1836 -1964 -2037 -2089 0
-1788 -2050 -2093 0
-1836 -1964 -2100 0
-1851 -2050 -2093 0
-1836 -1964 -1983 0
-1670 -1747 -1971 -2050 0
-1718 -1865 -1906 -1964 0
-1906 -1971 -2050 0
-1846 -1906 -1964 0
-1670 -1747 -2047 0
-1718 -1865 -1950 0
-1906 -2047 0
-1846 -1950 0
-1670 -1747 -2029 -2047 0
-1718 -1761 -1865 -1950 0
-1668 -1769 -2084 0
-1668 -1769 -2115 0
-1668 -1769 -1859 -2048 -2115 0
-1668 -1769 -2102 -2115 0
-1668 -1769 -2038 -2041 -2115 0
-1668 -1769 -2016 -2121 0
-1668 -1769 -2041 -2107 -2149 0
-1668 -1769 -1933 -1984 -2038 -2115 0
-1919 -1984 0
-1778 -2115 0
-1778 -2027 -2107 0
-1695 -1919 -1984 0
-1695 -1846 -2115 0
-1695 -1846 -2027 -2107 0
-1695 -1846 -2038 -2048 -2115 0
-1695 -1846 -2027 -2038 -2048 -2107 0
-1688 -2115 0
-1688 -2027 -2107 0
-1688 -2038 -2048 -2115 0
-1688 -2027 -2038 -2048 -2107 0
-1688 -1859 -1863 -2115 0
-1688 -1859 -1863 -2027 -2107 0
-1688 -1863 -1933 -2115 0
-1688 -1863 -1933 -2027 -2107 0
-1688 -1863 -2038 -2115 0
-1824 -1860 -1940 0
-1771 -2027 -2107 0
-1665 -1860 -1940 0
-1867 -2027 -2107 0
-1665 -1860 -1940 -1954 -2064 0
-1572 -1689 -1867 -2027 -2107 0
-1665 -1830 -1860 -1940 0
-1782 -1867 -2027 -2107 0
-1665 -1815 -1860 -1940 -1951 0
-1686 -1690 -1867 -2027 -2107 0
-1676 -1751 -1860 -1940 0
-1876 -1934 -2027 -2107 0
-1642 -1668 -1815 -1860 -1940 0
-1618 -1686 -1860 -2027 -2107 0
-1665 -1860 -1916 -1940 -1951 -2026 0
-1690 -1754 -1853 -1867 -2027 -2107 0
-1851 -1916 0
-1853 -1983 0
-1665 -2092 0
-1821 -1867 0
-1668 -1769 -2092 0
-1821 -1860 -1940 0
-1851 -1916 -2050 0
-1853 -1964 -1983 0
-1665 -1971 -2050 0
-1867 -1906 -1964 0
-1668 -1769 -1971 -2050 0
-1860 -1906 -1940 -1964 0
-1665 -1951 -1954 -1971 -2050 0
-1689 -1690 -1867 -1906 -1964 0
-1668 -1769 -1951 -1954 -1971 -2050 0
-1689 -1690 -1860 -1906 -1940 -1964 0
-1665 -2047 0
-1867 -1950 0
-1668 -1769 -2047 0
-1860 -1940 -1950 0
-1665 -1951 -1954 -2047 0
-1689 -1690 -1867 -1950 0
-1668 -1769 -1951 -1954 -2047 0
-1689 -1690 -1860 -1940 -1950 0
-1665 -2015 -2047 -2064 0
-1572 -1664 -1867 -1950 0
-1668 -1769 -2015 -2047 -2064 0
-1572 -1664 -1860 -1940 -1950 0
-1665 -2015 -2026 -2047 0
-1664 -1754 -1867 -1950 0
-1668 -1769 -2015 -2026 -2047 0
-1664 -1754 -1860 -1940 -1950 0
-1665 -1951 -2015 -2047 0
-1664 -1690 -1867 -1950 0
-1670 -1929 0
-1670 -1778 -1852 0
-1670 -1846 0
-1670 -1846 -1946 0
-1670 -1846 -1859 -1863 0
-1595 -1670 -1688 -1929 0
-1670 -1769 -1929 0
-1778 -2102 -2105 0
-1695 -1846 -2105 0
-1695 -1846 -2109 0
-1695 -1846 -2102 -2105 0
-1695 -1846 -2049 -2105 0
-1695 -1846 -2049 -2109 0
-1695 -1846 -2038 -2048 -2102 -2105 0
-1688 -2105 0
-1688 -2109 0
-1688 -2102 -2105 0
-1688 -2049 -2105 0
-1688 -2049 -2109 0
-1688 -2038 -2048 -2102 -2105 0
-1688 -1946 -2105 0
-1688 -1946 -2109 0
-1688 -1946 -2102 -2105 0
-1688 -1859 -1863 -2102 -2105 0
-1688 -1863 -1929 -2105 0
-1688 -1863 -2048 -2105 0
-1688 -1863 -2048 -2109 0
-1688 -1863 -1929 -2049 -2105 0
-1688 -1863 -1929 -2049 -2109 0
-1688 -1863 -1908 -2038 0
-1688 -1863 -1908 -2038 -2116 0
-1688 -1863 -1908 -2038 -2064 -2109 0
-1865 -1903 0
-1753 -2112 0
-1865 -1982 -2092 0
-1821 -1924 -2112 0
-1865 -1971 0
-1906 -2112 0
-1865 -1971 -2030 0
-1760 -1906 -2112 0
-1865 -1971 -2015 -2064 0
-1572 -1664 -1906 -2112 0
-1865 -1903 -2037 -2047 0
-1753 -1886 -1950 -2112 0
-1865 -1903 -1940 0
-1753 -2027 -2112 0
-1662 -1830 -2092 0
-1782 -1821 -1868 0
-1662 -1971 -2050 0
-1868 -1906 -1964 0
-1663 -1971 -2050 0
-1703 -1906 -1964 0
-1662 -1830 -1971 -2050 0
-1782 -1868 -1906 -1964 0
-1662 -1969 -1971 -2050 0
-1696 -1868 -1906 -1964 0
-1663 -1969 -1971 -2050 0
-1696 -1703 -1906 -1964 0
-1662 -1830 -1951 -1954 -1971 -2050 0
-1689 -1690 -1782 -1868 -1906 -1964 0
-1662 -2047 0
-1868 -1950 0
-1663 -2047 0
-1703 -1950 0
-1662 -1830 -2047 0
-1782 -1868 -1950 0
-1662 -1969 -2047 0
-1696 -1868 -1950 0
-1663 -1969 -2047 0
-1696 -1703 -1950 0
-1662 -1830 -1951 -1954 -2047 0
-1689 -1690 -1782 -1868 -1950 0
-1662 -2030 -2047 0
-1760 -1868 -1950 0
-1663 -2030 -2047 0
-1703 -1760 -1950 0
-1662 -1830 -2030 -2047 0
-1760 -1782 -1868 -1950 0
-1662 -1830 -2015 -2047 -2064 0
-1572 -1664 -1782 -1868 -1950 0
-1662 -1903 -2015 -2047 0
-1664 -1753 -1868 -1950 0
-1662 -1954 -2015 -2047 0
-1664 -1689 -1868 -1950 0
-1663 -1954 -2015 -2047 0
-1664 -1689 -1703 -1950 0
-1662 -1903 -1969 -2015 -2047 0
-1664 -1696 -1753 -1868 -1950 0
-1663 -1903 -1969 -2015 -2047 0
-1664 -1696 -1703 -1753 -1950 0
-1841 -1951 -2015 -2047 0
-1664 -1690 -1837 -1950 0
-1680 -1841 -1951 -2015 -2047 0
-1664 -1690 -1837 -1874 -1950 0
-1572 -1663 -1841 -1951 -2015 -2047 0
-1664 -1690 -1703 -1837 -1859 -1950 0
-1835 -1906 -2156 0
-1835 -1906 -1970 0
-1822 -2156 0
-1822 -1970 0
-1906 -2156 0
-1906 -1970 0
-1660 -1670 -1906 -2156 0
-1660 -1670 -1906 -1970 0
-1670 -1769 -1778 -1851 0
-1670 -1754 -1778 -1837 0
-1774 -2156 0
-1774 -2049 -2156 0
-1688 -2156 0
-1688 -2049 -2156 0
-1688 -1942 -2156 0
-1736 -1788 -1846 0
-1705 -1971 -2100 0
-1788 -1820 -1846 0
-1774 -1971 -2100 0
-1736 -1780 0
-1705 -2083 0
-1780 -1820 0
-1774 -2083 0
-1736 -1846 0
-1705 -1971 0
-1820 -1846 0
-1774 -1971 0
-1736 -1846 -1862 -1865 0
-1705 -1971 -2112 -2113 0
-1820 -1846 -1862 -1865 0
-1774 -1971 -2112 -2113 0
-1865 -1940 -1983 -2092 0
-1821 -1919 -2027 -2112 0
-1865 -1908 -1933 -2092 0
-1821 -1841 -2026 -2112 0
-1736 -1970 0
-1705 -1820 0
-1736 -1969 -1970 0
-1696 -1705 -1820 0
-1736 -2047 0
-1705 -1950 0
-1736 -1969 -2047 0
-1696 -1705 -1950 0
-1736 -2032 -2047 0
-1705 -1765 -1950 0
-1835 -1906 -2110 -2165 0
-1822 -2110 -2165 0
-1906 -2110 -2165 0
-1906 -2157 0
-1924 -1954 -2157 0
-1670 -1835 -1969 -2157 0
-1660 -1670 -1906 -2110 -2165 0
-1660 -1670 -1906 -2157 0
-1660 -1670 -1924 -1954 -2157 0
-1670 -1751 -1822 -1969 -2157 0
-1670 -1769 -1924 -2110 -2165 0
-1840 -1924 -2084 0
-1840 -1924 -2102 -2110 0
-1840 -1924 -2102 -2121 -2157 0
-1840 -1924 -2102 -2107 -2165 0
-1840 -1924 -2041 -2107 -2150 0
-1667 -1740 -1788 -1846 0
-1716 -1870 -1971 -2100 0
-1667 -1740 -1780 0
-1716 -1870 -2083 0
-1667 -1740 -1846 0
-1716 -1870 -1971 0
-1737 -1846 0
-1709 -1971 0
-1689 -1737 -1852 0
-1709 -1982 -2048 0
-1696 -1737 -1788 -1865 0
-1709 -2049 -2100 -2112 0
-1667 -1740 -1846 -1862 -1865 0
-1716 -1870 -1971 -2112 -2113 0
-1737 -1846 -1862 -1865 0
-1709 -1971 -2112 -2113 0
-1689 -1737 -1852 -1862 -1865 0
-1709 -1982 -2048 -2112 -2113 0
-1696 -1737 -1780 -1865 -1934 0
-1709 -2016 -2049 -2083 -2112 0
-1667 -1740 -1852 -1865 -1940 0
-1716 -1870 -1982 -2027 -2112 0
-1824 -1852 -1979 0
-1771 -1904 -1982 0
-1667 -1830 -1852 -1979 0
-1782 -1870 -1904 -1982 0
-1676 -1737 -1830 -1852 -1979 0
-1709 -1782 -1876 -1904 -1982 0
-1668 -1740 -1830 -1852 -1979 0
-1716 -1782 -1860 -1904 -1982 0
-1668 -1729 -1815 -1852 -1979 0
-1686 -1712 -1860 -1904 -1982 0
-1672 -1835 -1969 -2157 0
-1672 -1835 -1969 -2112 0
-1696 -1737 -1788 -1875 0
-1709 -2049 -2100 -2118 0
-1670 -1696 -1788 -1875 0
-1865 -2049 -2100 -2118 0
-1676 -1769 -1822 -1969 -2157 0
-1676 -1769 -1822 -1969 -2112 0
-1662 -1969 -2157 0
-1662 -1969 -2112 0
-1662 -2157 0
-1662 -2112 0
-1662 -1835 -1969 -2157 0
-1662 -1835 -1969 -2112 0
-1665 -1969 -2157 0
-1665 -1969 -2112 0
-1665 -2157 0
-1665 -2112 0
-1665 -2112 -2165 0
-1665 -2084 0
-1665 -2084 -2112 -2157 0
-1665 -2102 -2121 -2157 0
-1665 -2102 -2107 -2165 0
-1665 -2041 -2107 -2150 0
-1665 -2018 -2121 -2165 0
-1665 -2018 -2107 -2157 0
-1665 -1835 -1969 -2157 0
-1665 -1835 -1969 -2112 0
-1665 -1919 -2112 -2165 0
-1665 -1919 -2084 0
-1665 -1919 -2084 -2112 -2157 0
-1665 -1919 -2102 -2121 -2157 0
-1665 -1919 -2102 -2107 -2165 0
-1665 -1919 -2041 -2107 -2150 0
-1665 -1886 -1919 -2032 0
-1665 -1886 -1919 -2032 -2165 0
-1665 -1886 -1919 -2018 -2084 0
-1665 -1919 -1969 -2157 0
-1665 -1919 -1969 -2112 0
-1840 -1919 -2157 0
-1840 -1919 -2112 0
-1858 -1904 -2157 0
-1858 -1904 -2112 0
-1858 -1933 -2049 -2112 -2165 0
-1858 -1976 -2112 -2165 0
-1858 -1973 -2112 -2165 0
-1774 -2112 -2165 0
-1774 -2049 -2112 -2165 0
-1688 -2112 -2165 0
-1688 -2049 -2112 -2165 0
-1688 -1942 -2112 -2165 0
-1696 -1737 -1780 -1876 -1940 0
-1709 -2027 -2049 -2083 -2121 0
-1670 -1696 -1780 -1876 -1940 0
-1865 -2027 -2049 -2083 -2121 0
-1696 -1737 -1868 0
-1709 -2049 -2105 0
-1670 -1696 -1868 0
-1865 -2049 -2105 0
-1737 -1868 0
-1709 -2105 0
-1670 -1868 0
-1865 -2105 0
-1696 -1737 -1788 -1868 0
-1709 -2049 -2100 -2105 0
-1670 -1696 -1788 -1868 0
-1865 -2049 -2100 -2105 0
-1696 -1737 -1867 0
-1709 -2049 -2115 0
-1670 -1696 -1867 0
-1865 -2049 -2115 0
-1737 -1867 0
-1709 -2115 0
-1670 -1867 0
-1865 -2115 0
-1670 -1740 -1867 0
-1716 -1865 -2115 0
-1824 -1867 0
-1771 -2115 0
-1670 -1737 -1824 -1867 0
-1709 -1771 -1865 -2115 0
-1676 -1737 -1830 -1867 0
-1709 -1782 -1876 -2115 0
-1668 -1740 -1830 -1867 0
-1716 -1782 -1860 -2115 0
-1668 -1729 -1815 -1867 0
-1686 -1712 -1860 -2115 0
-1676 -1740 -1757 -1867 0
-1716 -1876 -1926 -2115 0
-1668 -1737 -1757 -1867 0
-1709 -1860 -1926 -2115 0
-1696 -1737 -1788 -1867 0
-1709 -2049 -2100 -2115 0
-1670 -1696 -1788 -1867 0
-1865 -2049 -2100 -2115 0
-1670 -1740 -1851 -1867 0
-1716 -1865 -1983 -2115 0
-1824 -1851 -1867 0
-1771 -1983 -2115 0
-1670 -1737 -1824 -1851 -1867 0
-1709 -1771 -1865 -1983 -2115 0
-1676 -1737 -1830 -1851 -1867 0
-1709 -1782 -1876 -1983 -2115 0
-1668 -1740 -1830 -1851 -1867 0
-1716 -1782 -1860 -1983 -2115 0
-1668 -1729 -1815 -1851 -1867 0
-1686 -1712 -1860 -1983 -2115 0
-1595 -1765 -1851 -1867 0
-1942 -1983 -2037 -2115 0
-1595 -1740 -1765 -1851 -1867 0
-1716 -1942 -1983 -2037 -2115 0
-1595 -1757 -1824 -1851 -1867 0
-1771 -1926 -1983 -2037 -2115 0
-1696 -1737 -1851 -1867 0
-1709 -1983 -2049 -2115 0
-1670 -1696 -1851 -1867 0
-1865 -1983 -2049 -2115 0
-1737 -1851 -1979 0
-1709 -1904 -1983 0
-1670 -1851 -1979 0
-1865 -1904 -1983 0
-1737 -1840 -1985 0
-1709 -1915 -1979 0
-1670 -1840 -1985 0
-1865 -1915 -1979 0
-1670 -1740 -1969 -1985 -2026 0
-1696 -1716 -1754 -1865 -1915 0
-1670 -1740 -1911 -1985 0
-1716 -1848 -1865 -1915 0
-1670 -1740 -1912 -1985 0
-1716 -1838 -1865 -1915 0
-1670 -1740 -1970 0
-1716 -1820 -1865 0
-1670 -1740 -1969 -1970 0
-1696 -1716 -1820 -1865 0
-1670 -1740 -2047 0
-1716 -1865 -1950 0
-1670 -1740 -1969 -2047 0
-1696 -1716 -1865 -1950 0
-1670 -1740 -2032 -2047 0
-1716 -1765 -1865 -1950 0
-1662 -1852 -1912 0
-1662 -1852 -1912 -2038 -2048 0
-1838 -1868 -1982 0
-1924 -1973 -2105 0
-1838 -1868 -1951 -1954 -1982 0
-1689 -1690 -1924 -1973 -2105 0
-1778 -1852 0
-1846 0
-1835 -1920 -1987 -2038 0
-1835 -1859 -1920 -1987 -2049 0
-1835 -1920 -1973 0
-1835 -1859 -1920 -1973 -2048 0
-1835 -1920 -1973 -2102 0
-1835 -1920 -1973 -2038 -2041 0
-1822 0
-1822 -1859 -2048 0
-1822 -2038 -2041 0
-1822 -2102 0
-1822 -2150 -2160 0
-1822 -2110 -2150 0
-1822 -2038 -2110 -2161 0
-1822 -1904 -1987 -2038 0
-1822 -1859 -1904 -1987 -2049 0
-1822 -1904 -1973 0
-1822 -1859 -1904 -1973 -2048 0
-1822 -1904 -1973 -2102 0
-1822 -1904 -1973 -2038 -2041 0
-1822 -2026 -2084 0
-1822 -2026 -2113 0
-1822 -2032 0
-1822 -1859 -2032 -2048 0
-1822 -2032 -2102 0
-1822 -2032 -2038 -2041 0
-1822 -2018 -2113 0
-1678 -1778 -1852 0
-1678 -1846 0
-1678 -1739 -1778 -1852 0
-1678 -1739 -1846 0
-1769 -2084 0
-1769 -2102 -2110 0
-2084 0
-2102 -2110 0
-1886 -1973 -2113 0
-1841 -2032 -2121 0
-1841 -1886 -2084 0
-1841 -1886 -2113 0
-1920 -1987 -2038 0
-1859 -1920 -1987 -2049 0
-1920 -1973 0
-1859 -1920 -1973 -2048 0
-1920 -1973 -2102 0
-1920 -1973 -2038 -2041 0
-1669 -1835 -1911 -2084 0
-1669 -1835 -1911 -2102 -2110 0
-1669 -1835 -1969 0
-1669 -1835 -1969 -2038 -2160 0
-1669 -1835 -1969 -2110 -2113 0
-1669 -1835 -1969 -2121 0
-1669 -1822 -1841 -2032 -2121 0
-1732 -1778 -1852 -1886 0
-1732 -1846 -1886 0
-1739 -1778 -1852 0
-1739 -1846 0
-1662 0
-1662 -2038 -2048 0
-1662 -1926 -1933 0
-1662 -1859 -1933 0
-1662 -1933 -2041 0
-1662 -1933 -2038 0
-1662 -1976 -2038 0
-1662 -1859 -1976 -2049 0
-1662 -1852 0
-1662 -1852 -2038 -2048 0
-1662 -1852 -1987 0
-1662 -1859 -2048 0
-1662 -2038 -2041 0
-1662 -2102 0
-1662 -2150 -2160 0
-1662 -2110 -2150 0
-1662 -2038 -2110 -2161 0
-1662 -1904 -1987 -2038 0
-1662 -1859 -1904 -1987 -2049 0
-1662 -1904 -1973 0
-1662 -1859 -1904 -1973 -2048 0
-1662 -1904 -1973 -2102 0
-1662 -1904 -1973 -2038 -2041 0
-1662 -2026 -2084 0
-1662 -2026 -2113 0
-1662 -2032 0
-1662 -1859 -2032 -2048 0
-1662 -2032 -2102 0
-1662 -2032 -2038 -2041 0
-1662 -2018 -2113 0
-1662 -1911 -2084 0
-1662 -1911 -2113 0
-1662 -1904 -1911 0
-1662 -1904 -1911 -2038 -2048 0
-1662 -1904 -1911 -1926 -1933 0
-1662 -1859 -1904 -1911 -1933 0
-1662 -1904 -1911 -1933 -2041 0
-1662 -1904 -1911 -1933 -2038 0
-1662 -1904 -1911 -1976 -2038 0
-1662 -1859 -1904 -1911 -1976 -2049 0
-1662 -1852 -1920 0
-1662 -1852 -1920 -2038 -2048 0
-1662 -1969 0
-1662 -1859 -1969 -2048 0
-1662 -1969 -2102 0
-1662 -1969 -2038 -2041 0
-1662 -1969 -2150 -2160 0
-1662 -1969 -2110 -2150 0
-1662 -1969 -2038 -2110 -2161 0
-1662 -1969 -2032 0
-1662 -1969 -2032 -2150 -2160 0
-1662 -1969 -2018 -2084 0
-1662 -1954 -2084 0
-1662 -1954 -2113 0
-1662 -1911 -2102 -2110 0
-1662 -1969 -2038 -2160 0
-1662 -1969 -2110 -2113 0
-1662 -1969 -2121 0
-1662 -2032 -2150 -2160 0
-1662 -2018 -2084 0
-1662 -2038 -2160 0
-1662 -2110 -2113 0
-1662 -2121 0
-1662 -1835 -1911 -2084 0
-1662 -1835 -1911 -2102 -2110 0
-1662 -1835 -1969 0
-1662 -1835 -1969 -2038 -2160 0
-1662 -1835 -1969 -2110 -2113 0
-1662 -1835 -1969 -2121 0
-1662 -1822 -1841 -2032 -2121 0
-1662 -1751 -2084 0
-1662 -1751 -2102 -2110 0
-1662 -1669 -2084 0
-1662 -1669 -2102 -2110 0
-1662 -1669 -1886 -1973 -2113 0
-1662 -1669 -1841 -2032 -2121 0
-1662 -1669 -1841 -1886 -2084 0
-1662 -1669 -1841 -1886 -2113 0
-1662 -1669 -1920 -1987 -2038 0
-1662 -1669 -1859 -1920 -1987 -2049 0
-1662 -1669 -1920 -1973 0
-1662 -1669 -1859 -1920 -1973 -2048 0
-1662 -1669 -1920 -1973 -2102 0
-1662 -1669 -1920 -1973 -2038 -2041 0
-1920 -2084 0
-1920 -2102 -2110 0
-1886 -1920 -2032 0
-1886 -1920 -2032 -2150 -2160 0
-1886 -1920 -2018 -2084 0
-1778 0
-1778 -1886 -1954 0
-1778 -2121 0
-1778 -1886 -1911 0
-1778 -1886 -2026 0
-1778 -2018 -2026 0
-1778 -2102 0
-1778 -2102 -2121 0
-1778 -1826 -1852 -1886 0
-1778 -1835 -1852 0
-1778 -1987 0
-1778 -1886 -1954 -1987 0
-1778 -1904 -2038 0
-1778 -1973 -2038 0
-1778 -1886 -1954 -1973 -2038 0
-1778 -1926 -1987 -2038 0
-1778 -1886 -1926 -1954 -1987 -2038 0
-1826 -1846 -1886 0
-1835 -1846 0
-1595 -1754 -2084 0
-1595 -1754 -2102 -2110 0
-1695 -1886 -1973 -2113 0
-1695 -2084 0
-1695 -2102 -2110 0
-1695 -1920 -2084 0
-1695 -1920 -2102 -2110 0
-1695 -1886 -1920 -2032 0
-1695 -1886 -1920 -2032 -2150 -2160 0
-1695 -1886 -1920 -2018 -2084 0
-1695 -1778 0
-1695 -1739 -1778 0
-1695 -1778 -1826 -1886 0
-1695 -1778 -1835 0
-1695 -1846 0
-1695 -1846 -2161 0
-1695 -1846 -2121 0
-1695 -1846 -2150 -2160 0
-1695 -1846 -1886 -1954 0
-1695 -1846 -1886 -1911 0
-1695 -1846 -1886 -2026 0
-1695 -1846 -2018 -2026 0
-1695 -1846 -2102 0
-1695 -1846 -2102 -2121 0
-1695 -1846 -2102 -2161 0
-1695 -1846 -2084 -2121 -2150 0
-1695 -1846 -2121 -2161 0
-1695 -1846 -2049 0
-1695 -1846 -2049 -2161 0
-1695 -1846 -2049 -2121 0
-1695 -1846 -2049 -2150 -2160 0
-1695 -1846 -1904 -1976 0
-1695 -1846 -1973 -1976 0
-1695 -1846 -1886 -1954 -1973 -1976 0
-1695 -1846 -1987 0
-1695 -1846 -1987 -2121 0
-1695 -1846 -1933 -1987 -2038 0
-1695 -1846 -1886 -1933 -1954 -1987 -2038 0
-1695 -1846 -2038 -2048 0
-1695 -1846 -1886 -1954 -2038 -2048 0
-1695 -1846 -2038 -2048 -2121 0
-1695 -1846 -1886 -1911 -2038 -2048 0
-1695 -1846 -1886 -2026 -2038 -2048 0
-1695 -1846 -2018 -2026 -2038 -2048 0
-1695 -1846 -2038 -2048 -2102 0
-1695 -1846 -2038 -2048 -2102 -2121 0
-1688 0
-1688 -2161 0
-1688 -2121 0
-1688 -2150 -2160 0
-1688 -1886 -1954 0
-1688 -1886 -1911 0
-1688 -1886 -2026 0
-1688 -2018 -2026 0
-1688 -2102 0
-1688 -2102 -2121 0
-1688 -2102 -2161 0
-1688 -2084 -2121 -2150 0
-1688 -2121 -2161 0
-1688 -2049 0
-1688 -2049 -2161 0
-1688 -2049 -2121 0
-1688 -2049 -2150 -2160 0
-1688 -1904 -1976 0
-1688 -1973 -1976 0
-1688 -1886 -1954 -1973 -1976 0
-1688 -1987 0
-1688 -1987 -2121 0
-1688 -1933 -1987 -2038 0
-1688 -1886 -1933 -1954 -1987 -2038 0
-1688 -2038 -2048 0
-1688 -1886 -1954 -2038 -2048 0
-1688 -2038 -2048 -2121 0
-1688 -1886 -1911 -2038 -2048 0
-1688 -1886 -2026 -2038 -2048 0
-1688 -2018 -2026 -2038 -2048 0
-1688 -2038 -2048 -2102 0
-1688 -2038 -2048 -2102 -2121 0
-1688 -1852 0
-1688 -1739 -1852 0
-1688 -1826 -1852 -1886 0
-1688 -1835 -1852 0
-1688 -1886 -1954 -1987 0
-1688 -1904 -2038 0
-1688 -1973 -2038 0
-1688 -1886 -1954 -1973 -2038 0
-1688 -1926 -1987 -2038 0
-1688 -1886 -1926 -1954 -1987 -2038 0
-1688 -1778 -1846 0
-1688 -1739 -1778 -1846 0
-1688 -1778 -1826 -1846 -1886 0
-1688 -1778 -1835 -1846 0
-1688 -1942 0
-1688 -1886 -1942 -1954 0
-1688 -1942 -2121 0
-1688 -1886 -1911 -1942 0
-1688 -1886 -1942 -2026 0
-1688 -1942 -2018 -2026 0
-1688 -1942 -2102 0
-1688 -1942 -2102 -2121 0
-1688 -1942 -2161 0
-1688 -1942 -2150 -2160 0
-1688 -1942 -2102 -2161 0
-1688 -1942 -2084 -2121 -2150 0
-1695 -1769 -2084 0
-1695 -1769 -2102 -2110 0
-1688 -1754 -2084 0
-1688 -1754 -2102 -2110 0
-1942 -1987 -2038 0
-1886 -1942 -1954 -1987 -2038 0
-1719 -1787 -1859 0
-1719 -1739 -1787 -1859 0
-1719 -1787 -1826 -1859 -1886 0
-1719 -1787 -1835 -1859 0
-1719 -1751 -1754 -1787 -1859 0
-1719 -1739 -1751 -1754 -1787 -1859 0
-1719 -1942 -1987 -2038 0
-1719 -1886 -1942 -1954 -1987 -2038 0
-1778 -1871 0
-1739 -1778 -1871 0
-1778 -1826 -1871 -1886 0
-1778 -1835 -1871 0
-1751 -1754 -1778 -1871 0
-1739 -1751 -1754 -1778 -1871 0
-1871 -1926 0
-1871 -1886 -1926 -1954 0
-1871 -1926 -2121 0
-1871 -1886 -1911 -1926 0
-1871 -1886 -1926 -2026 0
-1871 -1926 -2018 -2026 0
-1871 -1926 -2102 0
-1871 -1926 -2102 -2121 0
-1982 -2092 0
-1821 -1924 0
-1971 0
-1906 0
-1788 -1854 -1920 -1951 0
-1690 -1854 -1987 -2100 0
-1788 -1854 -1920 -1969 -2064 0
-1572 -1696 -1854 -1987 -2100 0
-1788 -1854 -1912 0
-1838 -1987 -2100 0
-1788 -1854 -1912 -1954 -2064 0
-1572 -1689 -1838 -1987 -2100 0
-1788 -1830 -1854 -1912 0
-1782 -1838 -1987 -2100 0
-1788 -1815 -1854 -1912 -1951 0
-1686 -1690 -1838 -1987 -2100 0
-1780 0
-2083 0
-1780 -1954 -2064 0
-1572 -1689 -2083 0
-1780 -1815 -1951 0
-1686 -1690 -2083 0
-1780 -1830 0
-1782 -2083 0
-1729 -1732 -1780 0
-1711 -1712 -2083 0
-1667 -1729 -1780 0
-1712 -1870 -2083 0
-1667 -1747 -1780 -1951 0
-1690 -1718 -1870 -2083 0
-1780 -1840 -1920 -1951 0
-1690 -1854 -1979 -2083 0
-1780 -1840 -1920 -1969 -2064 0
-1572 -1696 -1854 -1979 -2083 0
-1780 -1840 -1912 0
-1838 -1979 -2083 0
-1780 -1840 -1912 -1954 -2064 0
-1572 -1689 -1838 -1979 -2083 0
-1780 -1830 -1840 -1912 0
-1782 -1838 -1979 -2083 0
-1780 -1815 -1840 -1912 -1951 0
-1686 -1690 -1838 -1979 -2083 0
-1754 -1780 -1824 0
-1771 -1933 -2083 0
-1660 -1754 -1780 0
-1862 -1933 -2083 0
-1765 -1780 0
-1942 -2083 0
-1765 -1780 -1954 -2064 0
-1572 -1689 -1942 -2083 0
-1765 -1780 -1830 0
-1782 -1942 -2083 0
-1765 -1780 -1815 -1951 0
-1686 -1690 -1942 -2083 0
-1660 -1757 -1780 0
-1862 -1926 -2083 0
-1879 -1982 -2092 0
-1821 -1924 -2122 0
-1879 -1971 0
-1906 -2122 0
-1719 -1879 -1982 -2092 0
-1821 -1924 -2122 -2163 0
-1719 -1879 -1971 0
-1906 -2122 -2163 0
-1824 -1940 0
-1771 -2027 0
-1667 -1830 -1940 0
-1782 -1870 -2027 0
-1824 0
-1771 0
-1667 -1830 0
-1782 -1870 0
-1595 -1660 -1912 0
-1838 -1862 -2037 0
-1676 -1765 -1837 0
-1876 -1908 -1942 0
-1595 -1824 -1837 0
-1771 -1908 -2037 0
-1595 -1660 -1837 0
-1862 -1908 -2037 0
-1854 -1920 -1951 0
-1690 -1854 -1987 0
-1854 -1920 -1969 -2064 0
-1572 -1696 -1854 -1987 0
-1854 -1912 0
-1838 -1987 0
-1854 -1912 -1954 -2064 0
-1572 -1689 -1838 -1987 0
-1830 -1854 -1912 0
-1782 -1838 -1987 0
-1815 -1854 -1912 -1951 0
-1686 -1690 -1838 -1987 0
-1788 -1824 -1848 -1861 0
-1771 -1976 -2100 -2111 0
-1667 -1788 -1830 -1848 -1861 0
-1782 -1870 -1976 -2100 -2111 0
-1696 -1788 -1861 0
-2049 -2100 -2111 0
-1696 -1732 -1788 -1861 -1951 0
-1690 -1711 -2049 -2100 -2111 0
-1660 -1667 -1696 -1788 -1861 0
-1862 -1870 -2049 -2100 -2111 0
-1676 -1696 -1788 -1861 0
-1876 -2049 -2100 -2111 0
-1676 -1765 -1780 -1837 -1861 0
-1876 -1908 -1942 -2083 -2111 0
-1595 -1711 -1982 -2092 0
-1821 -1924 -2037 -2160 0
-1595 -1711 -1971 0
-1906 -2037 -2160 0
-1719 -1982 -2092 0
-1821 -1924 -2163 0
-1719 -1971 0
-1906 -2163 0
-1868 0
-2105 0
-1868 -1951 -1954 0
-1689 -1690 -2105 0
-1868 -2018 -2026 0
-1754 -1757 -2105 0
-1868 -2026 -2064 0
-1572 -1754 -2105 0
-1815 -1868 -2026 0
-1686 -1754 -2105 0
-1868 -1951 -2026 0
-1690 -1754 -2105 0
-1868 -1911 -1951 0
-1690 -1848 -2105 0
-1868 -1911 -1969 -2064 0
-1572 -1696 -1848 -2105 0
-1868 -1982 0
-1924 -2105 0
-1868 -1951 -1954 -1982 0
-1689 -1690 -1924 -2105 0
-1868 -1920 -1982 0
-1854 -1924 -2105 0
-1868 -1954 -2064 0
-1572 -1689 -2105 0
-1815 -1868 -1951 0
-1686 -1690 -2105 0
-1830 -1868 0
-1782 -2105 0
-1729 -1732 -1868 0
-1711 -1712 -2105 0
-1667 -1729 -1868 0
-1712 -1870 -2105 0
-1667 -1747 -1868 -1951 0
-1690 -1718 -1870 -2105 0
-1840 -1868 -1920 -1951 0
-1690 -1854 -1979 -2105 0
-1840 -1868 -1920 -1969 -2064 0
-1572 -1696 -1854 -1979 -2105 0
-1840 -1868 -1912 0
-1838 -1979 -2105 0
-1840 -1868 -1912 -1954 -2064 0
-1572 -1689 -1838 -1979 -2105 0
-1830 -1840 -1868 -1912 0
-1782 -1838 -1979 -2105 0
-1815 -1840 -1868 -1912 -1951 0
-1686 -1690 -1838 -1979 -2105 0
-1754 -1824 -1868 0
-1771 -1933 -2105 0
-1660 -1754 -1868 0
-1862 -1933 -2105 0
-1765 -1868 0
-1942 -2105 0
-1765 -1868 -1954 -2064 0
-1572 -1689 -1942 -2105 0
-1765 -1830 -1868 0
-1782 -1942 -2105 0
-1765 -1815 -1868 -1951 0
-1686 -1690 -1942 -2105 0
-1660 -1757 -1868 0
-1862 -1926 -2105 0
-1824 -1848 -1868 0
-1771 -1976 -2105 0
-1660 -1848 -1868 0
-1862 -1976 -2105 0
-1840 -1848 -1868 0
-1976 -1979 -2105 0
-1840 -1848 -1868 -1951 -1954 0
-1689 -1690 -1976 -1979 -2105 0
-1840 -1848 -1868 -2018 -2026 0
-1754 -1757 -1976 -1979 -2105 0
-1840 -1848 -1868 -2026 -2064 0
-1572 -1754 -1976 -1979 -2105 0
-1815 -1840 -1848 -1868 -2026 0
-1686 -1754 -1976 -1979 -2105 0
-1840 -1848 -1868 -1951 -2026 0
-1690 -1754 -1976 -1979 -2105 0
-1840 -1848 -1868 -1911 -1951 0
-1690 -1848 -1976 -1979 -2105 0
-1840 -1848 -1868 -1911 -1969 -2064 0
-1572 -1696 -1848 -1976 -1979 -2105 0
-1854 -1868 -1982 0
-1924 -1987 -2105 0
-1854 -1868 -1951 -1954 -1982 0
-1689 -1690 -1924 -1987 -2105 0
-1696 -1868 0
-2049 -2105 0
-1696 -1868 -1954 -2064 0
-1572 -1689 -2049 -2105 0
-1696 -1830 -1868 0
-1782 -2049 -2105 0
-1696 -1815 -1868 -1951 0
-1686 -1690 -2049 -2105 0
-1696 -1729 -1732 -1868 0
-1711 -1712 -2049 -2105 0
-1667 -1696 -1729 -1868 0
-1712 -1870 -2049 -2105 0
-1667 -1696 -1747 -1868 -1951 0
-1690 -1718 -1870 -2049 -2105 0
-1696 -1765 -1868 0
-1942 -2049 -2105 0
-1696 -1729 -1732 -1765 -1868 0
-1711 -1712 -1942 -2049 -2105 0
-1696 -1757 -1824 -1868 0
-1771 -1926 -2049 -2105 0
-1689 -1824 -1868 0
-1771 -2048 -2105 0
-1660 -1689 -1868 0
-1862 -2048 -2105 0
-1667 -1830 -1848 -1868 0
-1782 -1870 -1976 -2105 0
-1696 -1732 -1868 -1951 0
-1690 -1711 -2049 -2105 0
-1660 -1667 -1696 -1868 0
-1862 -1870 -2049 -2105 0
-1676 -1696 -1868 0
-1876 -2049 -2105 0
-1729 -1732 -1765 -1868 0
-1711 -1712 -1942 -2105 0
-1757 -1824 -1868 0
-1771 -1926 -2105 0
-1732 -1868 -1951 0
-1690 -1711 -2105 0
-1660 -1667 -1868 0
-1862 -1870 -2105 0
-1676 -1868 0
-1876 -2105 0
-1788 -1824 -1848 -1868 0
-1771 -1976 -2100 -2105 0
-1667 -1788 -1830 -1848 -1868 0
-1782 -1870 -1976 -2100 -2105 0
-1696 -1788 -1868 0
-2049 -2100 -2105 0
-1696 -1732 -1788 -1868 -1951 0
-1690 -1711 -2049 -2100 -2105 0
-1660 -1667 -1696 -1788 -1868 0
-1862 -1870 -2049 -2100 -2105 0
-1676 -1696 -1788 -1868 0
-1876 -2049 -2100 -2105 0
-1676 -1765 -1780 -1837 -1868 0
-1876 -1908 -1942 -2083 -2105 0
-1824 -1868 -1934 0
-1771 -2016 -2105 0
-1667 -1830 -1868 -1934 0
-1782 -1870 -2016 -2105 0
-1824 -1861 -1868 0
-1771 -2105 -2111 0
-1667 -1830 -1861 -1868 0
-1782 -1870 -2105 -2111 0
-1595 -1660 -1861 -1868 -1912 0
-1838 -1862 -2037 -2105 -2111 0
-1676 -1765 -1837 -1861 -1868 0
-1876 -1908 -1942 -2105 -2111 0
-1595 -1824 -1837 -1861 -1868 0
-1771 -1908 -2037 -2105 -2111 0
-1595 -1660 -1837 -1861 -1868 0
-1862 -1908 -2037 -2105 -2111 0
-1854 -1861 -1868 -1920 -1951 0
-1690 -1854 -1987 -2105 -2111 0
-1854 -1861 -1868 -1920 -1969 -2064 0
-1572 -1696 -1854 -1987 -2105 -2111 0
-1854 -1861 -1868 -1912 0
-1838 -1987 -2105 -2111 0
-1854 -1861 -1868 -1912 -1954 -2064 0
-1572 -1689 -1838 -1987 -2105 -2111 0
-1830 -1854 -1861 -1868 -1912 0
-1782 -1838 -1987 -2105 -2111 0
-1815 -1854 -1861 -1868 -1912 -1951 0
-1686 -1690 -1838 -1987 -2105 -2111 0
-1824 -1854 0
-1771 -1987 0
-1667 -1830 -1854 0
-1782 -1870 -1987 0
-1595 -1765 -1854 0
-1942 -1987 -2037 0
-1595 -1729 -1732 -1765 -1854 0
-1711 -1712 -1942 -1987 -2037 0
-1595 -1757 -1824 -1854 0
-1771 -1926 -1987 -2037 0
-2092 0
-1821 0
-1595 -1689 -2092 0
-1821 -2037 -2048 0
-1676 -2092 0
-1821 -1876 0
-1595 -1848 -2092 0
-1821 -1976 -2037 0
-1595 -1754 -2092 0
-1821 -1933 -2037 0
-1754 -1757 -2092 0
-1821 -1926 -1933 0
-1830 -2092 0
-1782 -1821 0
-1676 -1830 -2092 0
-1782 -1821 -1876 0
-1595 -1776 -1982 -2092 0
-1821 -1924 -2037 -2089 0
-1788 -1982 -2092 0
-1821 -1924 -2100 0
-1920 -2092 0
-1821 -1854 0
-1595 -1689 -1920 -2092 0
-1821 -1854 -2037 -2048 0
-1840 -1951 -2092 0
-1690 -1821 -1979 0
-1912 -1951 -2092 0
-1690 -1821 -1838 0
-1595 -1689 -1912 -1951 -2092 0
-1690 -1821 -1838 -2037 -2048 0
-1920 -1951 -2018 -2092 0
-1690 -1757 -1821 -1854 0
-1595 -1689 -1920 -1951 -2018 -2092 0
-1690 -1757 -1821 -1854 -2037 -2048 0
-1595 -1776 -1971 0
-1906 -2037 -2089 0
-1788 -1971 0
-1906 -2100 0
-1824 -1933 -2037 0
-1771 -1886 -2026 0
-1667 -1830 -1933 -2037 0
-1782 -1870 -1886 -2026 0
-1595 -1660 -1912 -2050 0
-1838 -1862 -1964 -2037 0
-1824 -2050 0
-1771 -1964 0
-1667 -1830 -2050 0
-1782 -1870 -1964 0
-1824 -1854 -2050 0
-1771 -1964 -1987 0
-1667 -1830 -1854 -2050 0
-1782 -1870 -1964 -1987 0
-1595 -1765 -1854 -2050 0
-1942 -1964 -1987 -2037 0
-1595 -1729 -1732 -1765 -1854 -2050 0
-1711 -1712 -1942 -1964 -1987 -2037 0
-1595 -1757 -1824 -1854 -2050 0
-1771 -1926 -1964 -1987 -2037 0
-2050 -2092 0
-1821 -1964 0
-1719 -2050 -2092 0
-1821 -1964 -2163 0
-1595 -1776 -2050 -2092 0
-1821 -1964 -2037 -2089 0
-1788 -2050 -2092 0
-1821 -1964 -2100 0
-1971 -2050 0
-1906 -1964 0
-1747 -1971 -2050 0
-1718 -1906 -1964 0
-1676 -1971 -2050 0
-1876 -1906 -1964 0
-1729 -1732 -1971 -2050 0
-1711 -1712 -1906 -1964 0
-1595 -1689 -1971 -2050 0
-1906 -1964 -2037 -2048 0
-1595 -1848 -1971 -2050 0
-1906 -1964 -1976 -2037 0
-1595 -1754 -1971 -2050 0
-1906 -1933 -1964 -2037 0
-1754 -1757 -1971 -2050 0
-1906 -1926 -1933 -1964 0
-1830 -1971 -2050 0
-1782 -1906 -1964 0
-1676 -1830 -1971 -2050 0
-1782 -1876 -1906 -1964 0
-1747 -1830 -1971 -2050 0
-1718 -1782 -1906 -1964 0
-1676 -1729 -1824 -1971 -2050 0
-1712 -1771 -1876 -1906 -1964 0
-1676 -1747 -1971 -2050 0
-1718 -1876 -1906 -1964 0
-1969 -1971 -2050 0
-1696 -1906 -1964 0
-1747 -1969 -1971 -2050 0
-1696 -1718 -1906 -1964 0
-1676 -1969 -1971 -2050 0
-1696 -1876 -1906 -1964 0
-1729 -1732 -1969 -1971 -2050 0
-1696 -1711 -1712 -1906 -1964 0
-1840 -1911 -1971 -2050 0
-1848 -1906 -1964 -1979 0
-1911 -1912 -1971 -2050 0
-1838 -1848 -1906 -1964 0
-1595 -1689 -1911 -1912 -1971 -2050 0
-1838 -1848 -1906 -1964 -2037 -2048 0
-1920 -1971 -2050 0
-1854 -1906 -1964 0
-1676 -1920 -1971 -2050 0
-1854 -1876 -1906 -1964 0
-1920 -1951 -1971 -2026 -2050 0
-1690 -1754 -1854 -1906 -1964 0
-1595 -1689 -1920 -1951 -1971 -2026 -2050 0
-1690 -1754 -1854 -1906 -1964 -2037 -2048 0
-1951 -1954 -1971 -2050 0
-1689 -1690 -1906 -1964 0
-1595 -1689 -1951 -1954 -1971 -2050 0
-1689 -1690 -1906 -1964 -2037 -2048 0
-1676 -1951 -1954 -1971 -2050 0
-1689 -1690 -1876 -1906 -1964 0
-1595 -1848 -1951 -1954 -1971 -2050 0
-1689 -1690 -1906 -1964 -1976 -2037 0
-1595 -1754 -1951 -1954 -1971 -2050 0
-1689 -1690 -1906 -1933 -1964 -2037 0
-1754 -1757 -1951 -1954 -1971 -2050 0
-1689 -1690 -1906 -1926 -1933 -1964 0
-1830 -1951 -1954 -1971 -2050 0
-1689 -1690 -1782 -1906 -1964 0
-1676 -1830 -1951 -1954 -1971 -2050 0
-1689 -1690 -1782 -1876 -1906 -1964 0
-2047 0
-1950 0
-1747 -2047 0
-1718 -1950 0
-1676 -2047 0
-1876 -1950 0
-1729 -1732 -2047 0
-1711 -1712 -1950 0
-1595 -1689 -2047 0
-1950 -2037 -2048 0
-1595 -1848 -2047 0
-1950 -1976 -2037 0
-1595 -1754 -2047 0
-1933 -1950 -2037 0
-1754 -1757 -2047 0
-1926 -1933 -1950 0
-1830 -2047 0
-1782 -1950 0
-1676 -1830 -2047 0
-1782 -1876 -1950 0
-1747 -1830 -2047 0
-1718 -1782 -1950 0
-1676 -1729 -1824 -2047 0
-1712 -1771 -1876 -1950 0
-1676 -1747 -2047 0
-1718 -1876 -1950 0
-1969 -2047 0
-1696 -1950 0
-1747 -1969 -2047 0
-1696 -1718 -1950 0
-1676 -1969 -2047 0
-1696 -1876 -1950 0
-1729 -1732 -1969 -2047 0
-1696 -1711 -1712 -1950 0
-1840 -1911 -2047 0
-1848 -1950 -1979 0
-1911 -1912 -2047 0
-1838 -1848 -1950 0
-1595 -1689 -1911 -1912 -2047 0
-1838 -1848 -1950 -2037 -2048 0
-1920 -2047 0
-1854 -1950 0
-1676 -1920 -2047 0
-1854 -1876 -1950 0
-1920 -1951 -2026 -2047 0
-1690 -1754 -1854 -1950 0
-1595 -1689 -1920 -1951 -2026 -2047 0
-1690 -1754 -1854 -1950 -2037 -2048 0
-1951 -1954 -2047 0
-1689 -1690 -1950 0
-1595 -1689 -1951 -1954 -2047 0
-1689 -1690 -1950 -2037 -2048 0
-1676 -1951 -1954 -2047 0
-1689 -1690 -1876 -1950 0
-1595 -1848 -1951 -1954 -2047 0
-1689 -1690 -1950 -1976 -2037 0
-1595 -1754 -1951 -1954 -2047 0
-1689 -1690 -1933 -1950 -2037 0
-1754 -1757 -1951 -1954 -2047 0
-1689 -1690 -1926 -1933 -1950 0
-1830 -1951 -1954 -2047 0
-1689 -1690 -1782 -1950 0
-1676 -1830 -1951 -1954 -2047 0
-1689 -1690 -1782 -1876 -1950 0
-1982 -2047 0
-1924 -1950 0
-1719 -1982 -2047 0
-1924 -1950 -2163 0
-1595 -1776 -1982 -2047 0
-1924 -1950 -2037 -2089 0
-1788 -1982 -2047 0
-1924 -1950 -2100 0
-1595 -1689 -1920 -2047 0
-1854 -1950 -2037 -2048 0
-1840 -1951 -2047 0
-1690 -1950 -1979 0
-1912 -1951 -2047 0
-1690 -1838 -1950 0
-1595 -1689 -1912 -1951 -2047 0
-1690 -1838 -1950 -2037 -2048 0
-1920 -1951 -2018 -2047 0
-1690 -1757 -1854 -1950 0
-1595 -1689 -1920 -1951 -2018 -2047 0
-1690 -1757 -1854 -1950 -2037 -2048 0
-1971 -2047 -2092 0
-1821 -1906 -1950 0
-1719 -1971 -2047 -2092 0
-1821 -1906 -1950 -2163 0
-1595 -1776 -1971 -2047 -2092 0
-1821 -1906 -1950 -2037 -2089 0
-1788 -1971 -2047 -2092 0
-1821 -1906 -1950 -2100 0
-2032 -2047 0
-1765 -1950 0
-1595 -1689 -2032 -2047 0
-1765 -1950 -2037 -2048 0
-1676 -2032 -2047 0
-1765 -1876 -1950 0
-1595 -1848 -2032 -2047 0
-1765 -1950 -1976 -2037 0
-1595 -1754 -2032 -2047 0
-1765 -1933 -1950 -2037 0
-1754 -1757 -2032 -2047 0
-1765 -1926 -1933 -1950 0
-1830 -2032 -2047 0
-1765 -1782 -1950 0
-1676 -1830 -2032 -2047 0
-1765 -1782 -1876 -1950 0
-1747 -2032 -2047 0
-1718 -1765 -1950 0
-1729 -1732 -2032 -2047 0
-1711 -1712 -1765 -1950 0
-1747 -1830 -2032 -2047 0
-1718 -1765 -1782 -1950 0
-1676 -1729 -1824 -2032 -2047 0
-1712 -1765 -1771 -1876 -1950 0
-1824 -1940 -2050 0
-1771 -1964 -2027 0
-1667 -1830 -1940 -2050 0
-1782 -1870 -1964 -2027 0
-1824 -1933 -2047 0
-1771 -1950 -2026 0
-1667 -1830 -1933 -2047 0
-1782 -1870 -1950 -2026 0
-1920 -1951 -2032 0
-1690 -1765 -1854 0
-1595 -1689 -1920 -1951 -2032 0
-1690 -1765 -1854 -2037 -2048 0
-2064 -2098 -2163 0
-1572 -1739 -1832 0
-1719 -2064 -2098 -2163 0
-1572 -1739 -1832 -2163 0
-1595 -1776 -2064 -2098 -2163 0
-1572 -1739 -1832 -2037 -2089 0
-1788 -2064 -2098 -2163 0
-1572 -1739 -1832 -2100 0
-1933 -1934 -2064 -2098 -2163 0
-1572 -1739 -1832 -2016 -2026 0
-1719 -1933 -1934 -2064 -2098 -2163 0
-1572 -1739 -1832 -2016 -2026 -2163 0
-1920 -1951 -2032 -2163 0
-1690 -1739 -1765 -1854 0
-1595 -1689 -1920 -1951 -2032 -2163 0
-1690 -1739 -1765 -1854 -2037 -2048 0
-2092 -2125 0
-1674 -1821 0
-1719 -2092 -2125 0
-1674 -1821 -2163 0
-1595 -1776 -2092 -2125 0
-1674 -1821 -2037 -2089 0
-1788 -2092 -2125 0
-1674 -1821 -2100 0
-1933 -1934 -2092 -2125 0
-1674 -1821 -2016 -2026 0
-1719 -1933 -1934 -2092 -2125 0
-1674 -1821 -2016 -2026 -2163 0
-2018 -2125 0
-1674 -1757 0
-1595 -1689 -2018 -2125 0
-1674 -1757 -2037 -2048 0
-1676 -2018 -2125 0
-1674 -1757 -1876 0
-1595 -1848 -2018 -2125 0
-1674 -1757 -1976 -2037 0
-1595 -1754 -2018 -2125 0
-1674 -1757 -1933 -2037 0
-1754 -1757 -2018 -2125 0
-1674 -1757 -1926 -1933 0
-1830 -2018 -2125 0
-1674 -1757 -1782 0
-1676 -1830 -2018 -2125 0
-1674 -1757 -1782 -1876 0
-1661 -1852 -1979 0
-1661 -2045 0
-1661 -1969 -2045 0
-1661 -1969 -2029 -2045 0
-1661 -2029 -2045 0
-1886 -1920 -2029 -2045 0
-1774 -2098 -2117 -2150 0
-1774 -2040 -2064 -2150 0
-1687 -1691 -1886 -1920 -2029 -2045 0
-1694 -1886 -1920 -2029 -2045 0
-1694 -1774 -1827 -1886 0
-1694 -1774 -1827 -1876 -1886 0
-1687 -2098 -2117 -2150 0
-1687 -2040 -2064 -2150 0
-1687 -1827 -1852 -1886 0
-1687 -1827 -1852 -1876 -1886 0
-1687 -1942 -2098 -2117 -2150 0
-1705 -2098 -2117 -2150 0
-1705 -2040 -2064 -2150 0
-1705 -1827 -1886 0
-1705 -1827 -1852 -1886 0
-1694 -1705 -1827 -1886 0
-1866 -1904 -1982 0
-1840 -1924 -2114 0
-1866 -1959 0
-1687 -2114 0
-1696 -1866 -1959 0
-1687 -2049 -2114 0
-1696 -1761 -1866 -1959 0
-1687 -1941 -2049 -2114 0
-1761 -1866 -1959 0
-1687 -1941 -2114 0
-1595 -1761 -1854 -1959 0
-1687 -1941 -1987 -2037 0
-1675 -1729 -1832 -1970 0
-1712 -1787 -1820 -1873 0
-1572 -1729 -1957 -1970 0
-1682 -1712 -1820 -1859 0
-1595 -1761 -1854 -1959 -2039 -2045 0
-1687 -1941 -1955 -1959 -1987 -2037 0
-1595 -1761 -1854 -1959 -2053 0
-1687 -1941 -1962 -1987 -2037 0
-1595 -1791 -1970 -2053 0
-1820 -1962 -2037 -2096 0
-1595 -1791 -1970 -2053 -2121 0
-1676 -1820 -1962 -2037 -2096 0
-1675 -1729 -1832 -2045 0
-1712 -1787 -1873 -1959 0
-1572 -1729 -1957 -2045 0
-1682 -1712 -1859 -1959 0
-1595 -1791 -1982 -2045 0
-1924 -1959 -2037 -2096 0
-1595 -1791 -1982 -2045 -2121 0
-1676 -1924 -1959 -2037 -2096 0
-1675 -1729 -1832 -2032 -2045 0
-1712 -1765 -1787 -1873 -1959 0
-1675 -1729 -1832 -2156 0
-1712 -1736 -1787 -1873 0
-1572 -1729 -1957 -2156 0
-1682 -1712 -1736 -1859 0
-1595 -1791 -2156 0
-1736 -2037 -2096 0
-1595 -1791 -1982 -2156 0
-1736 -1924 -2037 -2096 0
-1595 -1791 -2053 -2156 0
-1736 -1962 -2037 -2096 0
-1663 -1852 -1979 0
-1663 -2045 0
-1663 -1911 -2019 -2045 0
-1663 -1911 -2033 0
-1663 -1911 -2033 -2149 -2160 0
-1663 -1903 -1911 -2045 0
-1663 -1969 -2045 0
-1663 -1969 -2033 -2045 0
-1680 -1732 -2045 0
-1680 -1732 -2033 -2045 0
-1665 -2045 0
-1665 -2033 -2045 0
-1665 -2045 -2117 0
-1665 -1886 -1954 -2045 0
-1665 -1852 -1979 0
-1665 -1815 -1852 -1886 -1979 0
-1665 -1852 -1954 -1979 -2064 0
-1665 -1841 -1911 -2045 0
-1665 -1841 -1911 -2033 -2045 0
-1665 -1841 -1886 -2045 0
-1665 -1841 -1969 -2033 -2117 0
-1665 -1920 -2045 0
-1665 -1920 -2033 -2045 0
-1665 -1920 -1987 -2045 0
-1680 -1751 -2045 0
-1680 -1751 -2033 -2045 0
-1680 -1751 -2045 -2117 0
-1680 -1751 -1886 -1954 -2045 0
-1774 -1903 0
-1774 -2098 -2117 -2149 0
-1774 -2040 -2064 -2149 0
-1687 -1903 0
-1687 -2098 -2117 -2149 0
-1687 -2040 -2064 -2149 0
-1687 -1876 -1903 0
-1687 -1903 -1942 0
-1687 -1942 -2098 -2117 -2149 0
-1705 -1903 0
-1705 -2098 -2117 -2149 0
-1705 -2040 -2064 -2149 0
-1703 -1904 -1982 0
-1840 -1924 -2109 0
-1703 -1959 0
-1687 -2109 0
-1568 -1703 -1848 -1959 0
-1687 -1930 -1976 -2109 0
-1703 -1767 -1848 0
-1945 -1976 -2109 0
-1642 -1703 -1732 -1767 -1848 0
-1618 -1711 -1945 -1976 -2109 0
-1703 -1753 -1848 -1959 0
-1687 -1929 -1976 -2109 0
-1696 -1703 -1959 0
-1687 -2049 -2109 0
-1696 -1703 -1767 -1959 0
-1687 -1945 -2049 -2109 0
-1711 -1874 -1959 0
-1687 -2116 -2160 0
-1711 -1767 -1874 -1959 0
-1687 -1945 -2116 -2160 0
-1867 -1959 0
-1687 -2115 0
-1767 -1867 -1959 0
-1687 -1945 -2115 0
-1675 -1867 -1959 0
-1687 -1873 -2115 0
-1595 -1689 -1867 -1959 0
-1687 -2037 -2048 -2115 0
-1867 -1904 -1982 0
-1840 -1924 -2115 0
-1595 -1686 -1867 -1904 -1982 0
-1840 -1924 -2037 -2041 -2115 0
-1572 -1689 -1867 -1904 -1982 0
-1840 -1859 -1924 -2048 -2115 0
-1837 -1848 -1867 -1959 0
-1687 -1908 -1976 -2115 0
-1767 -1837 -1848 -1867 -1959 0
-1687 -1908 -1945 -1976 -2115 0
-1595 -1837 -1867 -1959 0
-1687 -1908 -2037 -2115 0
-1675 -1696 -1767 -1837 -1867 0
-1873 -1908 -1945 -2049 -2115 0
-1854 -1867 -1959 0
-1687 -1987 -2115 0
-1767 -1854 -1867 -1959 0
-1687 -1945 -1987 -2115 0
-1854 -1867 -1920 -1959 0
-1687 -1854 -1987 -2115 0
-1874 -1934 -1959 0
-1687 -2016 -2116 0
-1767 -1874 -1934 -1959 0
-1687 -1945 -2016 -2116 0
-1675 -1874 -1934 -1959 0
-1687 -1873 -2016 -2116 0
-1595 -1689 -1874 -1934 -1959 0
-1687 -2016 -2037 -2048 -2116 0
-1753 -1970 0
-1820 -1929 0
-1642 -1675 -1832 -1970 0
-1618 -1787 -1820 -1873 0
-1572 -1642 -1957 -1970 0
-1618 -1682 -1820 -1859 0
-1753 -2045 0
-1929 -1959 0
-1642 -1675 -1832 -2045 0
-1618 -1787 -1873 -1959 0
-1572 -1642 -1957 -2045 0
-1618 -1682 -1859 -1959 0
-1753 -2045 -2121 0
-1676 -1929 -1959 0
-1753 -2032 -2045 0
-1765 -1929 -1959 0
-1642 -1675 -1832 -2032 -2045 0
-1618 -1765 -1787 -1873 -1959 0
-1753 -2156 0
-1736 -1929 0
-1642 -1675 -1832 -2156 0
-1618 -1736 -1787 -1873 0
-1572 -1642 -1957 -2156 0
-1618 -1682 -1736 -1859 0
-1663 -2037 -2096 0
-1663 -1969 -2037 -2096 0
-1680 -1732 -2037 -2096 0
-1665 -2037 -2096 0
-1665 -1886 -1954 -2037 -2096 0
-1665 -1852 -1911 -1983 0
-1665 -1841 -1911 -2037 -2096 0
-1665 -1920 -2037 -2096 0
-1680 -1751 -2037 -2096 0
-1680 -1751 -1886 -1954 -2037 -2096 0
-1774 -2064 -2090 -2149 0
-1774 -1904 -1983 0
-1687 -2064 -2090 -2149 0
-1687 -1904 -1983 0
-1687 -1941 -1983 -2037 0
-1687 -1941 -1983 -2037 -2117 0
-1705 -2064 -2090 -2149 0
-1705 -1904 -1983 0
-1705 -1941 -2064 -2090 -2149 0
-1703 -1827 -1886 0
-1595 -1791 -2109 0
-1696 -1703 -1827 -1886 0
-1595 -1791 -2049 -2109 0
-1711 -1827 -1874 -1886 0
-1595 -1791 -2116 -2160 0
-1827 -1867 -1886 0
-1595 -1791 -2115 0
-1595 -1689 -1827 -1867 -1886 0
-1595 -1791 -2037 -2048 -2115 0
-1848 -1867 -1919 -1982 0
-1851 -1924 -1976 -2115 0
-1827 -1837 -1848 -1867 -1886 0
-1595 -1791 -1908 -1976 -2115 0
-1827 -1854 -1867 -1886 0
-1595 -1791 -1987 -2115 0
-1827 -1874 -1886 -1934 0
-1595 -1791 -2016 -2116 0
-1595 -1689 -1827 -1874 -1886 -1934 0
-1595 -1791 -2016 -2037 -2048 -2116 0
-1572 -1642 -1816 -1970 0
-1618 -1773 -1820 -1859 0
-1840 -1919 -1970 0
-1820 -1851 -1979 0
-1572 -1642 -1816 -2045 0
-1618 -1773 -1859 -1959 0
-1840 -1919 -2045 0
-1851 -1959 -1979 0
-1886 -1919 -2029 -2045 0
-1595 -1761 -1851 -1959 0
-1675 -1886 -1919 -2029 -2045 0
-1595 -1761 -1851 -1873 -1959 0
-1572 -1642 -1816 -2156 0
-1618 -1736 -1773 -1859 0
-1840 -1919 -2156 0
-1736 -1851 -1979 0
-1572 -1642 -1816 -2029 -2156 0
-1618 -1736 -1761 -1773 -1859 0
-1665 -2097 -2121 -2149 0
-1665 -2041 -2107 -2149 0
-1665 -1920 -1991 -2018 -2121 0
-1687 -1904 -1941 -2054 0
-1687 -1908 -1941 -2054 0
-1687 -1908 -1941 -2054 -2121 0
-1642 -1676 -1829 -1867 0
-1618 -1783 -1876 -2115 0
-1642 -1668 -1815 -1867 0
-1618 -1686 -1860 -2115 0
-1676 -1757 -1854 -1867 -1918 0
-1849 -1876 -1926 -1987 -2115 0
-1840 -1965 -2029 -2045 0
-1698 -1761 -1959 -1979 0
-1841 -1965 -2029 -2045 0
-1698 -1761 -1837 -1959 0
-1676 -1841 -1965 -2029 -2045 0
-1698 -1761 -1837 -1876 -1959 0
-1665 -2097 -2117 -2149 0
-1665 -2041 -2064 -2149 0
-1665 -1920 -1991 -2018 -2117 0
-1642 -1675 -1829 -1867 0
-1618 -1783 -1873 -2115 0
-1572 -1642 -1815 -1867 0
-1618 -1686 -1859 -2115 0
-1675 -1757 -1854 -1867 -1918 0
-1849 -1873 -1926 -1987 -2115 0
-1663 0
-1663 -1876 0
-1663 -2038 -2048 0
-1663 -1860 -1933 0
-1663 -1933 -2038 0
-1663 -1933 -2041 0
-1663 -1926 -1933 0
-1663 -1976 -2038 0
-1663 -1860 -1976 -2049 0
-1663 -1991 0
-1663 -1860 -1991 -2048 0
-1663 -1991 -2038 -2041 0
-1663 -1852 0
-1663 -1852 -2038 -2048 0
-1663 -2038 -2041 0
-1663 -1860 -2048 0
-1663 -2149 -2160 0
-1663 -2038 -2089 0
-1663 -2089 -2149 0
-1663 -2110 -2149 0
-1663 -2038 -2110 -2161 0
-1663 -2029 0
-1663 -2029 -2149 -2160 0
-1663 -2029 -2117 0
-1663 -1904 -1911 0
-1663 -1876 -1904 -1911 0
-1663 -1904 -1911 -2038 -2048 0
-1663 -1860 -1904 -1911 -1933 0
-1663 -1904 -1911 -1933 -2038 0
-1663 -1904 -1911 -1933 -2041 0
-1663 -1904 -1911 -1926 -1933 0
-1663 -1904 -1911 -1976 -2038 0
-1663 -1860 -1904 -1911 -1976 -2049 0
-1663 -1904 -1911 -1991 0
-1663 -1860 -1904 -1911 -1991 -2048 0
-1663 -1904 -1911 -1991 -2038 -2041 0
-1663 -1852 -1920 0
-1663 -1852 -1920 -2038 -2048 0
-1663 -1969 0
-1663 -1860 -1969 -2048 0
-1663 -1969 -2038 -2041 0
-1663 -1969 -2149 -2160 0
-1663 -1969 -2038 -2089 0
-1663 -1969 -2089 -2149 0
-1663 -1969 -2110 -2149 0
-1663 -1969 -2038 -2110 -2161 0
-1663 -1969 -2029 0
-1663 -1860 -1969 -2029 -2048 0
-1663 -1969 -2029 -2038 -2041 0
-2097 -2117 -2149 0
-2041 -2064 -2149 0
-1920 -1991 -2018 -2117 0
-1754 -1757 -2097 -2117 -2149 0
-1754 -1757 -2041 -2064 -2149 0
-1829 -2097 -2117 -2149 0
-1829 -2041 -2064 -2149 0
-1680 -1732 -1911 -2097 -2117 -2149 0
-1680 -1732 -1911 -2041 -2064 -2149 0
-1680 -1732 -1969 0
-1680 -1732 -1969 -2038 -2160 0
-1680 -1732 -1969 -2117 0
-1680 -1732 -1969 -2038 -2089 -2117 0
-1680 -1732 0
-1680 -1732 -2038 -2041 0
-1680 -1732 -1860 -2048 0
-1680 -1732 -2149 -2160 0
-1680 -1732 -2038 -2089 0
-1680 -1732 -2089 -2149 0
-1680 -1732 -2110 -2149 0
-1680 -1732 -2038 -2110 -2161 0
-1680 -1732 -2029 0
-1680 -1732 -1860 -2029 -2048 0
-1680 -1732 -2029 -2038 -2041 0
-1680 -1732 -2038 -2160 0
-1680 -1732 -2117 0
-1680 -1732 -2038 -2089 -2117 0
-1680 -1732 -1815 -2097 -2117 -2149 0
-1680 -1732 -1815 -2041 -2064 -2149 0
-1680 -2097 -2117 -2149 0
-1680 -2041 -2064 -2149 0
-1680 -1920 -1991 -2018 -2117 0
-1680 -1765 -2097 -2117 -2149 0
-1680 -1765 -2041 -2064 -2149 0
-1841 -1991 0
-1841 -1991 -2161 0
-1841 -1991 -2064 -2110 0
-1841 -1991 -2117 0
-1841 -1991 -2089 -2117 -2149 0
-1841 -1991 -2149 -2160 0
-1841 -1908 -2097 -2117 -2149 0
-1841 -1908 -2041 -2064 -2149 0
-1920 -2097 -2117 -2149 0
-1920 -2041 -2064 -2149 0
-1886 -1920 -2029 0
-1860 -1886 -1920 -2029 -2048 0
-1886 -1920 -2029 -2038 -2041 0
-1774 -1991 0
-1774 -1991 -2161 0
-1774 -1991 -2064 -2110 0
-1774 -1991 -2117 0
-1774 -1991 -2089 -2117 -2149 0
-1774 -1991 -2149 -2160 0
-1774 -1908 -2097 -2117 -2149 0
-1774 -1908 -2041 -2064 -2149 0
-1774 0
-1774 -2161 0
-1774 -2064 -2110 0
-1774 -2117 0
-1774 -2089 -2117 -2149 0
-1774 -2149 -2160 0
-1774 -1886 -1954 0
-1774 -1886 -1911 0
-1774 -1911 -1969 -2064 0
-1774 -1904 -1908 0
-1774 -1886 -2026 0
-1774 -2026 -2064 0
-1774 -1815 -2026 0
-1774 -2018 -2026 0
-1774 -2097 0
-1774 -2064 -2149 0
-1774 -2064 -2089 0
-1774 -2064 -2160 0
-1774 -2117 -2161 0
-1774 -2049 0
-1774 -2049 -2161 0
-1774 -2049 -2064 -2110 0
-1774 -2049 -2117 0
-1774 -2049 -2089 -2117 -2149 0
-1774 -2049 -2149 -2160 0
-1774 -1904 -1976 0
-1774 -1908 -1976 0
-1774 -1908 -1976 -2117 0
-1774 -1908 -1976 -2064 -2149 0
-1774 -2038 -2048 0
-1774 -1886 -1954 -2038 -2048 0
-1774 -2038 -2048 -2117 0
-1774 -1886 -1911 -2038 -2048 0
-1774 -1911 -1969 -2038 -2048 -2064 0
-1774 -1904 -1908 -2038 -2048 0
-1774 -1886 -2026 -2038 -2048 0
-1774 -2026 -2038 -2048 -2064 0
-1774 -1815 -2026 -2038 -2048 0
-1774 -2018 -2026 -2038 -2048 0
-1774 -2038 -2048 -2097 0
-1687 -1691 -2097 -2117 -2149 0
-1687 -1691 -2041 -2064 -2149 0
-1687 -1691 -1841 -1991 0
-1687 -1691 -1841 -1991 -2161 0
-1687 -1691 -1841 -1991 -2064 -2110 0
-1687 -1691 -1841 -1991 -2117 0
-1687 -1691 -1841 -1991 -2089 -2117 -2149 0
-1687 -1691 -1841 -1991 -2149 -2160 0
-1687 -1691 -1841 -1908 -2097 -2117 -2149 0
-1687 -1691 -1841 -1908 -2041 -2064 -2149 0
-1687 -1691 -1920 -2097 -2117 -2149 0
-1687 -1691 -1920 -2041 -2064 -2149 0
-1687 -1691 -1886 -1920 -2029 0
-1687 -1691 -1860 -1886 -1920 -2029 -2048 0
-1687 -1691 -1886 -1920 -2029 -2038 -2041 0
-1687 -1754 -2097 -2117 -2149 0
-1687 -1754 -2041 -2064 -2149 0
-1694 -2097 -2117 -2149 0
-1694 -2041 -2064 -2149 0
-1694 -1841 -1991 0
-1694 -1841 -1991 -2161 0
-1694 -1841 -1991 -2064 -2110 0
-1694 -1841 -1991 -2117 0
-1694 -1841 -1991 -2089 -2117 -2149 0
-1694 -1841 -1991 -2149 -2160 0
-1694 -1841 -1908 -2097 -2117 -2149 0
-1694 -1841 -1908 -2041 -2064 -2149 0
-1694 -1920 -2097 -2117 -2149 0
-1694 -1920 -2041 -2064 -2149 0
-1694 -1886 -1920 -2029 0
-1694 -1860 -1886 -1920 -2029 -2048 0
-1694 -1886 -1920 -2029 -2038 -2041 0
-1694 -1774 0
-1694 -1774 -1876 0
-1694 -1739 -1774 0
-1694 -1739 -1774 -1876 0
-1694 -1774 -1815 -1886 0
-1694 -1774 -1954 -2064 0
-1694 -1774 -1815 -1876 -1886 0
-1694 -1774 -1876 -1954 -2064 0
-1694 -1774 -1826 -1886 0
-1694 -1774 -1826 -1876 -1886 0
-1663 -1694 -1739 -1774 -1826 0
-1663 -1694 -1739 -1774 -1826 -1876 0
-1687 -1991 0
-1687 -1991 -2161 0
-1687 -1991 -2064 -2110 0
-1687 -1991 -2117 0
-1687 -1991 -2089 -2117 -2149 0
-1687 -1991 -2149 -2160 0
-1687 -1908 -2097 -2117 -2149 0
-1687 -1908 -2041 -2064 -2149 0
-1687 0
-1687 -2161 0
-1687 -2064 -2110 0
-1687 -2117 0
-1687 -2089 -2117 -2149 0
-1687 -2149 -2160 0
-1687 -1886 -1954 0
-1687 -1886 -1911 0
-1687 -1911 -1969 -2064 0
-1687 -1904 -1908 0
-1687 -1886 -2026 0
-1687 -1815 -2026 0
-1687 -2026 -2064 0
-1687 -2018 -2026 0
-1687 -2097 0
-1687 -2064 -2149 0
-1687 -2064 -2089 0
-1687 -2064 -2160 0
-1687 -2117 -2161 0
-1687 -2049 0
-1687 -2049 -2161 0
-1687 -2049 -2064 -2110 0
-1687 -2049 -2117 0
-1687 -2049 -2089 -2117 -2149 0
-1687 -2049 -2149 -2160 0
-1687 -1904 -1976 0
-1687 -1908 -1976 0
-1687 -1908 -1976 -2117 0
-1687 -1908 -1976 -2064 -2149 0
-1687 -2038 -2048 0
-1687 -1886 -1954 -2038 -2048 0
-1687 -2038 -2048 -2117 0
-1687 -1886 -1911 -2038 -2048 0
-1687 -1911 -1969 -2038 -2048 -2064 0
-1687 -1904 -1908 -2038 -2048 0
-1687 -1886 -2026 -2038 -2048 0
-1687 -1815 -2026 -2038 -2048 0
-1687 -2026 -2038 -2048 -2064 0
-1687 -2018 -2026 -2038 -2048 0
-1687 -2038 -2048 -2097 0
-1687 -1852 0
-1687 -1739 -1852 0
-1687 -1815 -1852 -1886 0
-1687 -1852 -1954 -2064 0
-1687 -1826 -1852 -1886 0
-1663 -1687 -1739 -1826 -1852 0
-1687 -1904 -2038 0
-1687 -1908 -2038 0
-1687 -1908 -2038 -2117 0
-1687 -1876 0
-1687 -1876 -1886 -1954 0
-1687 -1876 -2117 0
-1687 -1876 -1886 -1911 0
-1687 -1876 -1911 -1969 -2064 0
-1687 -1876 -1904 -1908 0
-1687 -1876 -1886 -2026 0
-1687 -1815 -1876 -2026 0
-1687 -1876 -2026 -2064 0
-1687 -1876 -2018 -2026 0
-1687 -1876 -2097 0
-1687 -1852 -1876 0
-1687 -1739 -1852 -1876 0
-1687 -1815 -1852 -1876 -1886 0
-1687 -1852 -1876 -1954 -2064 0
-1687 -1826 -1852 -1876 -1886 0
-1663 -1687 -1739 -1826 -1852 -1876 0
-1687 -1904 -1941 -2038 0
-1687 -1908 -1941 -2038 0
-1687 -1908 -1941 -2038 -2117 0
-1687 -1941 -1991 0
-1687 -1941 -1991 -2161 0
-1687 -1941 -1991 -2064 -2110 0
-1687 -1941 -1991 -2117 0
-1687 -1941 -1991 -2089 -2117 -2149 0
-1687 -1941 -1991 -2149 -2160 0
-1687 -1908 -1941 -2097 -2117 -2149 0
-1687 -1908 -1941 -2041 -2064 -2149 0
-1687 -1860 -1904 -1941 0
-1687 -1860 -1908 -1941 0
-1687 -1860 -1908 -1941 -2117 0
-1687 -1904 -1941 -2048 0
-1687 -1908 -1941 -2048 0
-1687 -1908 -1941 -2048 -2117 0
-1687 -1941 0
-1687 -1941 -2064 -2110 0
-1687 -1941 -2117 0
-1687 -1941 -2064 -2089 0
-1687 -1941 -2064 -2160 0
-1687 -1941 -2161 0
-1687 -1941 -2117 -2161 0
-1687 -1908 -1941 -2048 -2064 -2149 0
-1687 -1941 -1976 -2038 0
-1687 -1886 -1941 -1954 -1976 -2038 0
-1687 -1941 -1976 -2038 -2117 0
-1687 -1886 -1911 -1941 -1976 -2038 0
-1687 -1911 -1941 -1969 -1976 -2038 -2064 0
-1687 -1904 -1908 -1941 -1976 -2038 0
-1687 -1886 -1941 -1976 -2026 -2038 0
-1687 -1815 -1941 -1976 -2026 -2038 0
-1687 -1941 -1976 -2026 -2038 -2064 0
-1687 -1941 -1976 -2018 -2026 -2038 0
-1687 -1941 -1976 -2038 -2097 0
-1687 -1941 -2049 0
-1687 -1941 -2049 -2161 0
-1687 -1941 -2049 -2064 -2110 0
-1687 -1941 -2049 -2117 0
-1687 -1941 -2049 -2089 -2117 -2149 0
-1687 -1941 -2049 -2149 -2160 0
-1705 -1991 0
-1705 -1991 -2161 0
-1705 -1991 -2064 -2110 0
-1705 -1991 -2117 0
-1705 -1991 -2089 -2117 -2149 0
-1705 -1991 -2149 -2160 0
-1705 -1908 -2097 -2117 -2149 0
-1705 -1908 -2041 -2064 -2149 0
-1705 0
-1705 -2161 0
-1705 -2064 -2110 0
-1705 -2117 0
-1705 -2089 -2117 -2149 0
-1705 -2149 -2160 0
-1705 -1886 -1954 0
-1705 -1886 -1911 0
-1705 -1911 -1969 -2064 0
-1705 -1904 -1908 0
-1705 -1886 -2026 0
-1705 -1815 -2026 0
-1705 -2026 -2064 0
-1705 -2018 -2026 0
-1705 -2097 0
-1705 -2064 -2149 0
-1705 -2064 -2089 0
-1705 -2064 -2160 0
-1705 -2117 -2161 0
-1705 -2049 0
-1705 -2049 -2161 0
-1705 -2049 -2064 -2110 0
-1705 -2049 -2117 0
-1705 -2049 -2089 -2117 -2149 0
-1705 -2049 -2149 -2160 0
-1705 -1904 -1976 0
-1705 -1908 -1976 0
-1705 -1908 -1976 -2117 0
-1705 -1908 -1976 -2064 -2149 0
-1705 -2038 -2048 0
-1705 -1886 -1954 -2038 -2048 0
-1705 -2038 -2048 -2117 0
-1705 -1886 -1911 -2038 -2048 0
-1705 -1911 -1969 -2038 -2048 -2064 0
-1705 -1904 -1908 -2038 -2048 0
-1705 -1886 -2026 -2038 -2048 0
-1705 -1815 -2026 -2038 -2048 0
-1705 -2026 -2038 -2048 -2064 0
-1705 -2018 -2026 -2038 -2048 0
-1705 -2038 -2048 -2097 0
-1705 -1739 0
-1705 -1815 -1886 0
-1705 -1954 -2064 0
-1705 -1826 -1886 0
-1663 -1705 -1739 -1826 0
-1664 -1705 -1754 0
-1664 -1705 -1754 -1815 -1886 0
-1664 -1705 -1754 -1954 -2064 0
-1705 -1765 0
-1705 -1765 -1815 -1886 0
-1705 -1765 -1954 -2064 0
-1664 -1705 -1757 0
-1664 -1705 -1739 -1757 0
-1705 -1852 0
-1705 -1739 -1852 0
-1705 -1815 -1852 -1886 0
-1705 -1852 -1954 -2064 0
-1705 -1826 -1852 -1886 0
-1663 -1705 -1739 -1826 -1852 0
-1694 -1705 0
-1694 -1705 -1739 0
-1694 -1705 -1815 -1886 0
-1694 -1705 -1954 -2064 0
-1694 -1705 -1826 -1886 0
-1663 -1694 -1705 -1739 -1826 0
-1705 -1941 0
-1705 -1886 -1941 -1954 0
-1705 -1941 -2117 0
-1705 -1886 -1911 -1941 0
-1705 -1911 -1941 -1969 -2064 0
-1705 -1904 -1908 -1941 0
-1705 -1886 -1941 -2026 0
-1705 -1815 -1941 -2026 0
-1705 -1941 -2026 -2064 0
-1705 -1941 -2018 -2026 0
-1705 -1941 -2097 0
-1705 -1904 -2038 0
-1705 -1908 -2038 0
-1705 -1908 -2038 -2117 0
-1705 -1941 -2161 0
-1705 -1941 -2064 -2110 0
-1705 -1941 -2089 -2117 -2149 0
-1705 -1941 -2149 -2160 0
-1705 -1941 -2064 -2149 0
-1703 0
-2109 0
-1703 -2121 0
-1676 -2109 0
-1703 -1951 -1954 0
-1689 -1690 -2109 0
-1703 -2026 -2107 0
-1668 -1754 -2109 0
-1703 -1951 -2026 0
-1690 -1754 -2109 0
-1703 -1815 -2026 0
-1686 -1754 -2109 0
-1703 -2018 -2026 0
-1754 -1757 -2109 0
-1703 -1911 -1951 0
-1690 -1848 -2109 0
-1703 -1911 -1969 -2107 0
-1668 -1696 -1848 -2109 0
-1703 -1918 0
-1849 -2109 0
-1703 -1918 -1954 -2107 0
-1668 -1689 -1849 -2109 0
-1703 -1815 -1918 -1951 0
-1686 -1690 -1849 -2109 0
-1703 -1982 0
-1924 -2109 0
-1703 -1951 -1954 -1982 0
-1689 -1690 -1924 -2109 0
-1703 -1815 -1951 0
-1686 -1690 -2109 0
-1703 -1954 -2107 0
-1668 -1689 -2109 0
-1642 -1703 -1732 0
-1618 -1711 -2109 0
-1703 -1826 -1951 0
-1690 -1776 -2109 0
-1642 -1703 -1826 0
-1618 -1776 -2109 0
-1642 -1667 -1703 0
-1618 -1870 -2109 0
-1667 -1703 -1747 -1951 0
-1690 -1718 -1870 -2109 0
-1703 -1761 0
-1941 -2109 0
-1642 -1703 -1732 -1761 0
-1618 -1711 -1941 -2109 0
-1675 -1703 -1761 0
-1873 -1941 -2109 0
-1703 -1840 -1848 0
-1976 -1979 -2109 0
-1703 -1840 -1848 -2121 0
-1676 -1976 -1979 -2109 0
-1703 -1840 -1848 -1951 -1954 0
-1689 -1690 -1976 -1979 -2109 0
-1703 -1840 -1848 -2026 -2107 0
-1668 -1754 -1976 -1979 -2109 0
-1703 -1840 -1848 -1951 -2026 0
-1690 -1754 -1976 -1979 -2109 0
-1703 -1815 -1840 -1848 -2026 0
-1686 -1754 -1976 -1979 -2109 0
-1703 -1840 -1848 -2018 -2026 0
-1754 -1757 -1976 -1979 -2109 0
-1703 -1840 -1848 -1911 -1951 0
-1690 -1848 -1976 -1979 -2109 0
-1703 -1840 -1848 -1911 -1969 -2107 0
-1668 -1696 -1848 -1976 -1979 -2109 0
-1703 -1840 -1848 -1918 0
-1849 -1976 -1979 -2109 0
-1703 -1840 -1848 -1918 -1954 -2107 0
-1668 -1689 -1849 -1976 -1979 -2109 0
-1703 -1815 -1840 -1848 -1918 -1951 0
-1686 -1690 -1849 -1976 -1979 -2109 0
-1703 -1854 -1982 0
-1924 -1987 -2109 0
-1703 -1854 -1951 -1954 -1982 0
-1689 -1690 -1924 -1987 -2109 0
-1696 -1703 0
-2049 -2109 0
-1696 -1703 -1954 -2107 0
-1668 -1689 -2049 -2109 0
-1696 -1703 -1815 -1951 0
-1686 -1690 -2049 -2109 0
-1642 -1696 -1703 -1732 0
-1618 -1711 -2049 -2109 0
-1696 -1703 -1826 -1951 0
-1690 -1776 -2049 -2109 0
-1642 -1696 -1703 -1826 0
-1618 -1776 -2049 -2109 0
-1642 -1667 -1696 -1703 0
-1618 -1870 -2049 -2109 0
-1667 -1696 -1703 -1747 -1951 0
-1690 -1718 -1870 -2049 -2109 0
-1696 -1703 -1761 0
-1941 -2049 -2109 0
-1696 -1703 -1761 -1954 -2107 0
-1668 -1689 -1941 -2049 -2109 0
-1696 -1703 -1761 -1815 -1951 0
-1686 -1690 -1941 -2049 -2109 0
-1642 -1675 -1829 0
-1618 -1783 -1873 0
-1572 -1642 -1815 0
-1618 -1686 -1859 0
-1675 -1757 -1854 -1918 0
-1849 -1873 -1926 -1987 0
-1642 -1675 -1829 -1926 -1933 0
-1618 -1783 -1873 -2018 -2026 0
-1572 -1642 -1815 -1926 -1933 0
-1618 -1686 -1859 -2018 -2026 0
-1642 -1675 -1783 -1829 0
-1618 -1783 -1873 -2097 0
-1572 -1642 -1783 -1815 0
-1618 -1686 -1859 -2097 0
-1642 -1675 -1711 -1829 -1848 -1874 0
-1618 -1783 -1873 -1976 -2116 -2160 0
-1572 -1642 -1711 -1815 -1848 -1874 0
-1618 -1686 -1859 -1976 -2116 -2160 0
-1696 -1711 -1874 0
-2049 -2116 -2160 0
-1696 -1711 -1732 -1874 -1951 0
-1690 -1711 -2049 -2116 -2160 0
-1675 -1696 -1711 -1874 0
-1873 -2049 -2116 -2160 0
-1675 -1696 -1711 -1826 -1874 -1951 0
-1690 -1776 -1873 -2049 -2116 -2160 0
-1711 -1874 0
-2116 -2160 0
-1711 -1815 -1874 -1951 0
-1686 -1690 -2116 -2160 0
-1711 -1874 -1954 -2107 0
-1668 -1689 -2116 -2160 0
-1642 -1711 -1732 -1874 0
-1618 -1711 -2116 -2160 0
-1711 -1826 -1874 -1951 0
-1690 -1776 -2116 -2160 0
-1642 -1711 -1826 -1874 0
-1618 -1776 -2116 -2160 0
-1642 -1667 -1711 -1874 0
-1618 -1870 -2116 -2160 0
-1667 -1711 -1747 -1874 -1951 0
-1690 -1718 -1870 -2116 -2160 0
-1711 -1761 -1874 0
-1941 -2116 -2160 0
-1711 -1761 -1874 -1954 -2107 0
-1668 -1689 -1941 -2116 -2160 0
-1711 -1761 -1815 -1874 -1951 0
-1686 -1690 -1941 -2116 -2160 0
-1711 -1732 -1874 -1951 0
-1690 -1711 -2116 -2160 0
-1675 -1711 -1874 0
-1873 -2116 -2160 0
-1675 -1711 -1826 -1874 -1951 0
-1690 -1776 -1873 -2116 -2160 0
-1642 -1675 -1686 -1711 -1829 -1874 0
-1618 -1783 -1873 -2041 -2116 -2160 0
-1572 -1642 -1686 -1711 -1815 -1874 0
-1618 -1686 -1859 -2041 -2116 -2160 0
-1642 -1675 -1829 -1874 0
-1618 -1783 -1873 -2116 0
-1572 -1642 -1815 -1874 0
-1618 -1686 -1859 -2116 0
-1675 -1757 -1854 -1874 -1918 0
-1849 -1873 -1926 -1987 -2116 0
-1642 -1675 -1829 -1874 -1942 0
-1618 -1783 -1873 -2032 -2116 0
-1572 -1642 -1815 -1874 -1942 0
-1618 -1686 -1859 -2032 -2116 0
-1837 -1918 0
-1849 -1908 0
-1747 -1837 -1918 0
-1718 -1849 -1908 0
-1572 -1667 -1837 -1918 0
-1849 -1859 -1870 -1908 0
-1675 -1837 -1918 0
-1849 -1873 -1908 0
-1642 -1675 -1826 -1837 -1918 0
-1618 -1776 -1849 -1873 -1908 0
-1642 -1732 -1837 -1918 0
-1618 -1711 -1849 -1908 0
-1642 -1675 -1829 -1837 -1841 0
-1618 -1783 -1837 -1873 -1908 0
-1572 -1642 -1815 -1837 -1841 0
-1618 -1686 -1837 -1859 -1908 0
-1642 -1675 -1829 -1854 0
-1618 -1783 -1873 -1987 0
-1572 -1642 -1815 -1854 0
-1618 -1686 -1859 -1987 0
-1595 -1761 -1854 0
-1941 -1987 -2037 0
-1595 -1761 -1854 -1954 -2107 0
-1668 -1689 -1941 -1987 -2037 0
-1595 -1761 -1815 -1854 -1951 0
-1686 -1690 -1941 -1987 -2037 0
-1918 -1970 0
-1820 -1849 0
-1747 -1918 -1970 0
-1718 -1820 -1849 0
-1572 -1667 -1918 -1970 0
-1820 -1849 -1859 -1870 0
-1675 -1918 -1970 0
-1820 -1849 -1873 0
-1642 -1675 -1826 -1918 -1970 0
-1618 -1776 -1820 -1849 -1873 0
-1642 -1732 -1918 -1970 0
-1618 -1711 -1820 -1849 0
-1642 -1675 -1829 -1841 -1970 0
-1618 -1783 -1820 -1837 -1873 0
-1572 -1642 -1815 -1841 -1970 0
-1618 -1686 -1820 -1837 -1859 0
-1970 0
-1820 0
-1747 -1970 0
-1718 -1820 0
-1572 -1667 -1970 0
-1820 -1859 -1870 0
-1675 -1970 0
-1820 -1873 0
-1642 -1675 -1826 -1970 0
-1618 -1776 -1820 -1873 0
-1642 -1732 -1970 0
-1618 -1711 -1820 0
-1595 -1689 -1970 0
-1820 -2037 -2048 0
-1595 -1848 -1970 0
-1820 -1976 -2037 0
-1572 -1696 -1848 -1970 0
-1820 -1859 -1976 -2049 0
-1840 -1841 -1970 0
-1820 -1837 -1979 0
-1595 -1754 -1970 0
-1820 -1933 -2037 0
-1572 -1754 -1970 0
-1820 -1859 -1933 0
-1686 -1754 -1970 0
-1820 -1933 -2041 0
-1754 -1757 -1970 0
-1820 -1926 -1933 0
-1829 -1970 0
-1783 -1820 0
-1572 -1642 -1970 0
-1618 -1820 -1859 0
-1572 -1826 -1970 0
-1776 -1820 -1859 0
-1572 -1732 -1970 0
-1711 -1820 -1859 0
-1675 -1747 -1970 0
-1718 -1820 -1873 0
-1969 -1970 0
-1696 -1820 0
-1747 -1969 -1970 0
-1696 -1718 -1820 0
-1572 -1667 -1969 -1970 0
-1696 -1820 -1859 -1870 0
-1675 -1969 -1970 0
-1696 -1820 -1873 0
-1642 -1675 -1826 -1969 -1970 0
-1618 -1696 -1776 -1820 -1873 0
-1642 -1732 -1969 -1970 0
-1618 -1696 -1711 -1820 0
-1840 -1911 -1970 0
-1820 -1848 -1979 0
-1841 -1911 -1970 0
-1820 -1837 -1848 0
-1675 -1841 -1911 -1970 0
-1820 -1837 -1848 -1873 0
-1572 -1642 -1841 -1911 -1970 0
-1618 -1820 -1837 -1848 -1859 0
-1951 -1954 -1970 0
-1689 -1690 -1820 0
-1595 -1689 -1951 -1954 -1970 0
-1689 -1690 -1820 -2037 -2048 0
-1675 -1951 -1954 -1970 0
-1689 -1690 -1820 -1873 0
-1595 -1848 -1951 -1954 -1970 0
-1689 -1690 -1820 -1976 -2037 0
-1572 -1696 -1848 -1951 -1954 -1970 0
-1689 -1690 -1820 -1859 -1976 -2049 0
-1840 -1841 -1951 -1954 -1970 0
-1689 -1690 -1820 -1837 -1979 0
-1595 -1754 -1951 -1954 -1970 0
-1689 -1690 -1820 -1933 -2037 0
-1572 -1754 -1951 -1954 -1970 0
-1689 -1690 -1820 -1859 -1933 0
-1686 -1754 -1951 -1954 -1970 0
-1689 -1690 -1820 -1933 -2041 0
-1754 -1757 -1951 -1954 -1970 0
-1689 -1690 -1820 -1926 -1933 0
-1829 -1951 -1954 -1970 0
-1689 -1690 -1783 -1820 0
-1642 -1675 -1829 -2039 -2045 0
-1618 -1783 -1873 -1955 -1959 0
-1572 -1642 -1815 -2039 -2045 0
-1618 -1686 -1859 -1955 -1959 0
-1837 -1918 -2039 -2045 0
-1849 -1908 -1955 -1959 0
-1747 -1837 -1918 -2039 -2045 0
-1718 -1849 -1908 -1955 -1959 0
-1572 -1667 -1837 -1918 -2039 -2045 0
-1849 -1859 -1870 -1908 -1955 -1959 0
-1675 -1837 -1918 -2039 -2045 0
-1849 -1873 -1908 -1955 -1959 0
-1642 -1675 -1826 -1837 -1918 -2039 -2045 0
-1618 -1776 -1849 -1873 -1908 -1955 -1959 0
-1642 -1732 -1837 -1918 -2039 -2045 0
-1618 -1711 -1849 -1908 -1955 -1959 0
-1642 -1675 -1829 -1837 -1841 -2039 -2045 0
-1618 -1783 -1837 -1873 -1908 -1955 -1959 0
-1572 -1642 -1815 -1837 -1841 -2039 -2045 0
-1618 -1686 -1837 -1859 -1908 -1955 -1959 0
-1642 -1675 -1829 -1854 -2039 -2045 0
-1618 -1783 -1873 -1955 -1959 -1987 0
-1572 -1642 -1815 -1854 -2039 -2045 0
-1618 -1686 -1859 -1955 -1959 -1987 0
-1595 -1761 -1854 -2039 -2045 0
-1941 -1955 -1959 -1987 -2037 0
-1595 -1761 -1854 -1954 -2039 -2045 -2107 0
-1668 -1689 -1941 -1955 -1959 -1987 -2037 0
-1595 -1761 -1815 -1854 -1951 -2039 -2045 0
-1686 -1690 -1941 -1955 -1959 -1987 -2037 0
-1642 -1675 -1829 -1933 -2045 0
-1618 -1783 -1873 -1959 -2026 0
-1572 -1642 -1815 -1933 -2045 0
-1618 -1686 -1859 -1959 -2026 0
-1642 -1675 -1829 -2053 0
-1618 -1783 -1873 -1962 0
-1572 -1642 -1815 -2053 0
-1618 -1686 -1859 -1962 0
-1837 -1918 -2053 0
-1849 -1908 -1962 0
-1747 -1837 -1918 -2053 0
-1718 -1849 -1908 -1962 0
-1572 -1667 -1837 -1918 -2053 0
-1849 -1859 -1870 -1908 -1962 0
-1675 -1837 -1918 -2053 0
-1849 -1873 -1908 -1962 0
-1642 -1675 -1826 -1837 -1918 -2053 0
-1618 -1776 -1849 -1873 -1908 -1962 0
-1642 -1732 -1837 -1918 -2053 0
-1618 -1711 -1849 -1908 -1962 0
-1642 -1675 -1829 -1837 -1841 -2053 0
-1618 -1783 -1837 -1873 -1908 -1962 0
-1572 -1642 -1815 -1837 -1841 -2053 0
-1618 -1686 -1837 -1859 -1908 -1962 0
-1642 -1675 -1829 -1854 -2053 0
-1618 -1783 -1873 -1962 -1987 0
-1572 -1642 -1815 -1854 -2053 0
-1618 -1686 -1859 -1962 -1987 0
-1595 -1761 -1854 -2053 0
-1941 -1962 -1987 -2037 0
-1595 -1761 -1854 -1954 -2053 -2107 0
-1668 -1689 -1941 -1962 -1987 -2037 0
-1595 -1761 -1815 -1854 -1951 -2053 0
-1686 -1690 -1941 -1962 -1987 -2037 0
-1970 -2053 0
-1820 -1962 0
-1970 -2053 -2121 0
-1676 -1820 -1962 0
-1719 -1970 -2053 0
-1820 -1962 -2163 0
-1719 -1970 -2053 -2121 0
-1676 -1820 -1962 -2163 0
-1595 -1686 -1970 -2053 0
-1820 -1962 -2037 -2041 0
-1572 -1689 -1970 -2053 0
-1820 -1859 -1962 -2048 0
-1595 -1686 -1970 -2053 -2121 0
-1676 -1820 -1962 -2037 -2041 0
-1572 -1689 -1970 -2053 -2121 0
-1676 -1820 -1859 -1962 -2048 0
-1595 -1776 -1970 -2053 0
-1820 -1962 -2037 -2089 0
-1595 -1776 -1970 -2053 -2121 0
-1676 -1820 -1962 -2037 -2089 0
-1703 -1719 -1776 -1970 -2053 0
-1820 -1962 -2089 -2109 -2163 0
-1703 -1719 -1776 -1970 -2053 -2121 0
-1676 -1820 -1962 -2089 -2109 -2163 0
-1918 -2045 0
-1849 -1959 0
-1747 -1918 -2045 0
-1718 -1849 -1959 0
-1572 -1667 -1918 -2045 0
-1849 -1859 -1870 -1959 0
-1675 -1918 -2045 0
-1849 -1873 -1959 0
-1642 -1675 -1826 -1918 -2045 0
-1618 -1776 -1849 -1873 -1959 0
-1642 -1732 -1918 -2045 0
-1618 -1711 -1849 -1959 0
-1642 -1675 -1829 -1841 -2045 0
-1618 -1783 -1837 -1873 -1959 0
-1572 -1642 -1815 -1841 -2045 0
-1618 -1686 -1837 -1859 -1959 0
-2045 0
-1959 0
-1747 -2045 0
-1718 -1959 0
-1572 -1667 -2045 0
-1859 -1870 -1959 0
-1675 -2045 0
-1873 -1959 0
-1642 -1675 -1826 -2045 0
-1618 -1776 -1873 -1959 0
-1642 -1732 -2045 0
-1618 -1711 -1959 0
-1595 -1689 -2045 0
-1959 -2037 -2048 0
-1595 -1848 -2045 0
-1959 -1976 -2037 0
-1572 -1696 -1848 -2045 0
-1859 -1959 -1976 -2049 0
-1840 -1841 -2045 0
-1837 -1959 -1979 0
-1595 -1754 -2045 0
-1933 -1959 -2037 0
-1686 -1754 -2045 0
-1933 -1959 -2041 0
-1572 -1754 -2045 0
-1859 -1933 -1959 0
-1754 -1757 -2045 0
-1926 -1933 -1959 0
-1829 -2045 0
-1783 -1959 0
-1572 -1642 -2045 0
-1618 -1859 -1959 0
-1572 -1826 -2045 0
-1776 -1859 -1959 0
-1572 -1732 -2045 0
-1711 -1859 -1959 0
-1675 -1747 -2045 0
-1718 -1873 -1959 0
-1969 -2045 0
-1696 -1959 0
-1747 -1969 -2045 0
-1696 -1718 -1959 0
-1572 -1667 -1969 -2045 0
-1696 -1859 -1870 -1959 0
-1675 -1969 -2045 0
-1696 -1873 -1959 0
-1642 -1675 -1826 -1969 -2045 0
-1618 -1696 -1776 -1873 -1959 0
-1642 -1732 -1969 -2045 0
-1618 -1696 -1711 -1959 0
-1840 -1911 -2045 0
-1848 -1959 -1979 0
-1841 -1911 -2045 0
-1837 -1848 -1959 0
-1675 -1841 -1911 -2045 0
-1837 -1848 -1873 -1959 0
-1572 -1642 -1841 -1911 -2045 0
-1618 -1837 -1848 -1859 -1959 0
-1951 -1954 -2045 0
-1689 -1690 -1959 0
-1595 -1689 -1951 -1954 -2045 0
-1689 -1690 -1959 -2037 -2048 0
-1675 -1951 -1954 -2045 0
-1689 -1690 -1873 -1959 0
-1595 -1848 -1951 -1954 -2045 0
-1689 -1690 -1959 -1976 -2037 0
-1572 -1696 -1848 -1951 -1954 -2045 0
-1689 -1690 -1859 -1959 -1976 -2049 0
-1840 -1841 -1951 -1954 -2045 0
-1689 -1690 -1837 -1959 -1979 0
-1595 -1754 -1951 -1954 -2045 0
-1689 -1690 -1933 -1959 -2037 0
-1686 -1754 -1951 -1954 -2045 0
-1689 -1690 -1933 -1959 -2041 0
-1572 -1754 -1951 -1954 -2045 0
-1689 -1690 -1859 -1933 -1959 0
-1754 -1757 -1951 -1954 -2045 0
-1689 -1690 -1926 -1933 -1959 0
-1829 -1951 -1954 -2045 0
-1689 -1690 -1783 -1959 0
-1982 -2045 0
-1924 -1959 0
-1719 -1982 -2045 0
-1924 -1959 -2163 0
-1595 -1686 -1982 -2045 0
-1924 -1959 -2037 -2041 0
-1572 -1689 -1982 -2045 0
-1859 -1924 -1959 -2048 0
-1595 -1776 -1982 -2045 0
-1924 -1959 -2037 -2089 0
-1703 -1719 -1776 -1982 -2045 0
-1924 -1959 -2089 -2109 -2163 0
-1840 -1951 -2045 0
-1690 -1959 -1979 0
-1841 -1951 -2045 0
-1690 -1837 -1959 0
-1675 -1841 -1951 -2045 0
-1690 -1837 -1873 -1959 0
-2045 -2121 0
-1676 -1959 0
-1595 -1689 -2045 -2121 0
-1676 -1959 -2037 -2048 0
-1675 -2045 -2121 0
-1676 -1873 -1959 0
-1595 -1848 -2045 -2121 0
-1676 -1959 -1976 -2037 0
-1572 -1696 -1848 -2045 -2121 0
-1676 -1859 -1959 -1976 -2049 0
-1840 -1841 -2045 -2121 0
-1676 -1837 -1959 -1979 0
-1595 -1754 -2045 -2121 0
-1676 -1933 -1959 -2037 0
-1686 -1754 -2045 -2121 0
-1676 -1933 -1959 -2041 0
-1572 -1754 -2045 -2121 0
-1676 -1859 -1933 -1959 0
-1754 -1757 -2045 -2121 0
-1676 -1926 -1933 -1959 0
-1829 -2045 -2121 0
-1676 -1783 -1959 0
-1982 -2045 -2121 0
-1676 -1924 -1959 0
-1719 -1982 -2045 -2121 0
-1676 -1924 -1959 -2163 0
-1595 -1686 -1982 -2045 -2121 0
-1676 -1924 -1959 -2037 -2041 0
-1572 -1689 -1982 -2045 -2121 0
-1676 -1859 -1924 -1959 -2048 0
-1595 -1776 -1982 -2045 -2121 0
-1676 -1924 -1959 -2037 -2089 0
-1703 -1719 -1776 -1982 -2045 -2121 0
-1676 -1924 -1959 -2089 -2109 -2163 0
-1840 -1951 -2029 -2045 0
-1690 -1761 -1959 -1979 0
-1841 -1951 -2029 -2045 0
-1690 -1761 -1837 -1959 0
-1675 -1841 -1951 -2029 -2045 0
-1690 -1761 -1837 -1873 -1959 0
-1918 -2029 -2045 0
-1761 -1849 -1959 0
-1747 -1918 -2029 -2045 0
-1718 -1761 -1849 -1959 0
-1572 -1667 -1918 -2029 -2045 0
-1761 -1849 -1859 -1870 -1959 0
-1675 -1918 -2029 -2045 0
-1761 -1849 -1873 -1959 0
-1642 -1675 -1826 -1918 -2029 -2045 0
-1618 -1761 -1776 -1849 -1873 -1959 0
-1642 -1732 -1918 -2029 -2045 0
-1618 -1711 -1761 -1849 -1959 0
-1642 -1675 -1829 -1841 -2029 -2045 0
-1618 -1761 -1783 -1837 -1873 -1959 0
-1572 -1642 -1815 -1841 -2029 -2045 0
-1618 -1686 -1761 -1837 -1859 -1959 0
-1840 -2029 -2045 -2107 0
-1668 -1761 -1959 -1979 0
-1841 -2029 -2045 -2107 0
-1668 -1761 -1837 -1959 0
-1675 -1841 -2029 -2045 -2107 0
-1668 -1761 -1837 -1873 -1959 0
-1840 -1954 -2029 -2045 0
-1689 -1761 -1959 -1979 0
-1841 -1954 -2029 -2045 0
-1689 -1761 -1837 -1959 0
-1675 -1841 -1954 -2029 -2045 0
-1689 -1761 -1837 -1873 -1959 0
-2029 -2045 0
-1761 -1959 0
-1572 -1667 -2029 -2045 0
-1761 -1859 -1870 -1959 0
-1675 -2029 -2045 0
-1761 -1873 -1959 0
-1572 -1826 -2029 -2045 0
-1761 -1776 -1859 -1959 0
-1572 -1732 -2029 -2045 0
-1711 -1761 -1859 -1959 0
-1747 -2029 -2045 0
-1718 -1761 -1959 0
-1675 -1747 -2029 -2045 0
-1718 -1761 -1873 -1959 0
-1572 -1642 -1841 -1954 -2029 -2045 0
-1618 -1689 -1761 -1837 -1859 -1959 0
-1911 -1951 -2029 -2045 0
-1690 -1761 -1848 -1959 0
-1595 -1689 -1911 -1951 -2029 -2045 0
-1690 -1761 -1848 -1959 -2037 -2048 0
-1675 -1911 -1951 -2029 -2045 0
-1690 -1761 -1848 -1873 -1959 0
-1595 -1848 -1911 -1951 -2029 -2045 0
-1690 -1761 -1848 -1959 -1976 -2037 0
-1572 -1696 -1848 -1911 -1951 -2029 -2045 0
-1690 -1761 -1848 -1859 -1959 -1976 -2049 0
-1840 -1841 -1911 -1951 -2029 -2045 0
-1690 -1761 -1837 -1848 -1959 -1979 0
-1595 -1754 -1911 -1951 -2029 -2045 0
-1690 -1761 -1848 -1933 -1959 -2037 0
-1686 -1754 -1911 -1951 -2029 -2045 0
-1690 -1761 -1848 -1933 -1959 -2041 0
-1572 -1754 -1911 -1951 -2029 -2045 0
-1690 -1761 -1848 -1859 -1933 -1959 0
-1754 -1757 -1911 -1951 -2029 -2045 0
-1690 -1761 -1848 -1926 -1933 -1959 0
-1829 -1911 -1951 -2029 -2045 0
-1690 -1761 -1783 -1848 -1959 0
-1969 -2029 -2045 0
-1696 -1761 -1959 0
-1747 -1969 -2029 -2045 0
-1696 -1718 -1761 -1959 0
-1572 -1667 -1969 -2029 -2045 0
-1696 -1761 -1859 -1870 -1959 0
-1675 -1969 -2029 -2045 0
-1696 -1761 -1873 -1959 0
-1642 -1675 -1826 -1969 -2029 -2045 0
-1618 -1696 -1761 -1776 -1873 -1959 0
-1642 -1732 -1969 -2029 -2045 0
-1618 -1696 -1711 -1761 -1959 0
-1918 -2156 0
-1736 -1849 0
-1747 -1918 -2156 0
-1718 -1736 -1849 0
-1572 -1667 -1918 -2156 0
-1736 -1849 -1859 -1870 0
-1675 -1918 -2156 0
-1736 -1849 -1873 0
-1642 -1675 -1826 -1918 -2156 0
-1618 -1736 -1776 -1849 -1873 0
-1642 -1732 -1918 -2156 0
-1618 -1711 -1736 -1849 0
-1642 -1675 -1829 -1841 -2156 0
-1618 -1736 -1783 -1837 -1873 0
-1572 -1642 -1815 -1841 -2156 0
-1618 -1686 -1736 -1837 -1859 0
-2156 0
-1736 0
-1747 -2156 0
-1718 -1736 0
-1572 -1667 -2156 0
-1736 -1859 -1870 0
-1675 -2156 0
-1736 -1873 0
-1642 -1675 -1826 -2156 0
-1618 -1736 -1776 -1873 0
-1642 -1732 -2156 0
-1618 -1711 -1736 0
-1595 -1689 -2156 0
-1736 -2037 -2048 0
-1595 -1848 -2156 0
-1736 -1976 -2037 0
-1572 -1696 -1848 -2156 0
-1736 -1859 -1976 -2049 0
-1840 -1841 -2156 0
-1736 -1837 -1979 0
-1595 -1754 -2156 0
-1736 -1933 -2037 0
-1686 -1754 -2156 0
-1736 -1933 -2041 0
-1572 -1754 -2156 0
-1736 -1859 -1933 0
-1754 -1757 -2156 0
-1736 -1926 -1933 0
-1829 -2156 0
-1736 -1783 0
-1572 -1642 -2156 0
-1618 -1736 -1859 0
-1572 -1826 -2156 0
-1736 -1776 -1859 0
-1572 -1732 -2156 0
-1711 -1736 -1859 0
-1675 -1747 -2156 0
-1718 -1736 -1873 0
-1969 -2156 0
-1696 -1736 0
-1747 -1969 -2156 0
-1696 -1718 -1736 0
-1572 -1667 -1969 -2156 0
-1696 -1736 -1859 -1870 0
-1675 -1969 -2156 0
-1696 -1736 -1873 0
-1642 -1675 -1826 -1969 -2156 0
-1618 -1696 -1736 -1776 -1873 0
-1642 -1732 -1969 -2156 0
-1618 -1696 -1711 -1736 0
-1840 -1911 -2156 0
-1736 -1848 -1979 0
-1841 -1911 -2156 0
-1736 -1837 -1848 0
-1675 -1841 -1911 -2156 0
-1736 -1837 -1848 -1873 0
-1572 -1642 -1841 -1911 -2156 0
-1618 -1736 -1837 -1848 -1859 0
-1951 -1954 -2156 0
-1689 -1690 -1736 0
-1595 -1689 -1951 -1954 -2156 0
-1689 -1690 -1736 -2037 -2048 0
-1675 -1951 -1954 -2156 0
-1689 -1690 -1736 -1873 0
-1595 -1848 -1951 -1954 -2156 0
-1689 -1690 -1736 -1976 -2037 0
-1572 -1696 -1848 -1951 -1954 -2156 0
-1689 -1690 -1736 -1859 -1976 -2049 0
-1840 -1841 -1951 -1954 -2156 0
-1689 -1690 -1736 -1837 -1979 0
-1595 -1754 -1951 -1954 -2156 0
-1689 -1690 -1736 -1933 -2037 0
-1686 -1754 -1951 -1954 -2156 0
-1689 -1690 -1736 -1933 -2041 0
-1572 -1754 -1951 -1954 -2156 0
-1689 -1690 -1736 -1859 -1933 0
-1754 -1757 -1951 -1954 -2156 0
-1689 -1690 -1736 -1926 -1933 0
-1829 -1951 -1954 -2156 0
-1689 -1690 -1736 -1783 0
-1719 -2156 0
-1736 -2163 0
-1595 -1686 -2156 0
-1736 -2037 -2041 0
-1572 -1689 -2156 0
-1736 -1859 -2048 0
-1595 -1776 -2156 0
-1736 -2037 -2089 0
-1703 -1719 -1776 -2156 0
-1736 -2089 -2109 -2163 0
-1863 -1933 -2156 0
-1736 -2015 -2026 0
-1595 -1686 -1863 -1933 -2156 0
-1736 -2015 -2026 -2037 -2041 0
-1572 -1689 -1863 -1933 -2156 0
-1736 -1859 -2015 -2026 -2048 0
-1942 -2156 0
-1736 -2032 0
-1595 -1686 -1942 -2156 0
-1736 -2032 -2037 -2041 0
-1572 -1689 -1942 -2156 0
-1736 -1859 -2032 -2048 0
-1863 -1926 -2156 0
-1736 -2015 -2018 0
-1719 -1863 -1926 -2156 0
-1736 -2015 -2018 -2163 0
-1982 -2156 0
-1736 -1924 0
-1719 -1982 -2156 0
-1736 -1924 -2163 0
-1595 -1686 -1982 -2156 0
-1736 -1924 -2037 -2041 0
-1572 -1689 -1982 -2156 0
-1736 -1859 -1924 -2048 0
-1595 -1776 -1982 -2156 0
-1736 -1924 -2037 -2089 0
-1703 -1719 -1776 -1982 -2156 0
-1736 -1924 -2089 -2109 -2163 0
-2053 -2156 0
-1736 -1962 0
-1719 -2053 -2156 0
-1736 -1962 -2163 0
-1595 -1686 -2053 -2156 0
-1736 -1962 -2037 -2041 0
-1572 -1689 -2053 -2156 0
-1736 -1859 -1962 -2048 0
-1595 -1776 -2053 -2156 0
-1736 -1962 -2037 -2089 0
-1703 -1719 -1776 -2053 -2156 0
-1736 -1962 -2089 -2109 -2163 0
-2029 -2156 0
-1736 -1761 0
-1595 -1689 -2029 -2156 0
-1736 -1761 -2037 -2048 0
-1675 -2029 -2156 0
-1736 -1761 -1873 0
-1595 -1848 -2029 -2156 0
-1736 -1761 -1976 -2037 0
-1572 -1696 -1848 -2029 -2156 0
-1736 -1761 -1859 -1976 -2049 0
-1840 -1841 -2029 -2156 0
-1736 -1761 -1837 -1979 0
-1595 -1754 -2029 -2156 0
-1736 -1761 -1933 -2037 0
-1686 -1754 -2029 -2156 0
-1736 -1761 -1933 -2041 0
-1572 -1754 -2029 -2156 0
-1736 -1761 -1859 -1933 0
-1754 -1757 -2029 -2156 0
-1736 -1761 -1926 -1933 0
-1829 -2029 -2156 0
-1736 -1761 -1783 0
-1840 -1951 -2156 0
-1690 -1736 -1979 0
-1841 -1951 -2156 0
-1690 -1736 -1837 0
-1675 -1841 -1951 -2156 0
-1690 -1736 -1837 -1873 0
-1747 -2029 -2156 0
-1718 -1736 -1761 0
-1572 -1667 -2029 -2156 0
-1736 -1761 -1859 -1870 0
-1642 -1675 -1826 -2029 -2156 0
-1618 -1736 -1761 -1776 -1873 0
-1642 -1732 -2029 -2156 0
-1618 -1711 -1736 -1761 0
-1572 -1642 -2029 -2156 0
-1618 -1736 -1761 -1859 0
-1666 -2041 -2107 -2149 0
-1701 -1773 -1903 0
-1701 -1773 -1903 -2038 -2048 0
-1683 -2041 -2107 -2149 0
-1683 -1920 -2041 -2107 -2149 0
-1701 -1754 -2041 -2107 -2149 0
-1706 -1903 0
-1706 -1903 -2038 -2048 0
-1706 -1903 -1941 0
-1642 -1668 -1815 -1869 0
-1618 -1686 -1860 -2106 0
-1753 -2055 -2090 0
-1816 -1929 -1967 0
-1753 -1951 -1954 -2055 -2090 0
-1689 -1690 -1816 -1929 -1967 0
-1642 -1668 -1815 -2044 0
-1618 -1686 -1860 -1958 0
-1642 -1668 -1815 -1854 -2044 0
-1618 -1686 -1860 -1958 -1987 0
-1642 -1668 -1815 -1933 -2055 0
-1618 -1686 -1860 -1967 -2026 0
-1753 -2158 0
-1727 -1929 0
-1753 -1951 -1954 -2158 0
-1689 -1690 -1727 -1929 0
-1753 -2029 -2158 0
-1727 -1761 -1929 0
-1829 -1957 -2110 -2165 0
-1948 -2110 -2165 0
-1666 -2110 -2165 0
-1666 -2157 0
-1666 -2016 -2117 0
-1666 -1815 -1948 -2110 -2165 0
-1666 -1826 -1948 -2110 -2165 0
-1666 -1920 -2110 -2165 0
-1666 -1920 -2157 0
-1666 -1908 -1920 -2026 -2157 0
-1666 -1908 -1920 -2032 -2117 0
-1701 -1773 -2038 -2094 0
-1701 -1773 -2087 0
-1701 -1773 -2048 -2094 0
-1683 -2110 -2165 0
-1683 -2157 0
-1683 -2016 -2117 0
-1683 -1815 -1948 -2110 -2165 0
-1683 -1920 -2016 -2117 0
-1701 -1754 -2110 -2165 0
-1701 -1754 -2157 0
-1701 -1754 -2016 -2117 0
-1701 -1754 -1815 -1948 -2110 -2165 0
-1706 -2038 -2094 0
-1706 -2087 0
-1706 -2048 -2094 0
-1706 -1941 -2038 -2094 0
-1706 -1941 -2087 0
-1667 -1682 -1740 -1783 0
-1716 -1870 -2040 -2097 0
-1573 -1667 -1740 0
-1716 -1870 -1996 0
-1667 -1740 -1869 0
-1716 -1870 -2106 0
-1737 -1869 0
-1709 -2106 0
-1675 -1751 -1869 0
-1873 -1934 -2106 0
-1573 -1667 -1686 -1740 -1869 0
-1716 -1870 -1996 -2041 -2106 0
-1573 -1667 -1740 -1776 -1869 0
-1716 -1870 -1996 -2089 -2106 0
-1667 -1740 -1854 -1869 0
-1716 -1870 -1987 -2106 0
-1737 -1854 -1869 0
-1709 -1987 -2106 0
-1737 -1754 -1841 -1854 -1869 0
-1709 -1837 -1933 -1987 -2106 0
-1675 -1765 -1841 -1854 -1869 0
-1837 -1873 -1942 -1987 -2106 0
-1831 -1951 -2055 -2090 0
-1690 -1784 -1816 -1967 0
-1823 -2055 -2090 0
-1781 -1816 -1967 0
-1831 -1954 -2055 -2090 0
-1689 -1784 -1816 -1967 0
-1667 -1740 -2044 0
-1716 -1870 -1958 0
-1737 -2044 0
-1709 -1958 0
-1675 -1751 -2044 0
-1873 -1934 -1958 0
-1573 -1667 -1686 -1740 -2044 0
-1716 -1870 -1958 -1996 -2041 0
-1675 -1751 -1854 -2044 0
-1873 -1934 -1958 -1987 0
-1667 -1740 -1933 -2055 0
-1716 -1870 -1967 -2026 0
-1737 -1933 -2055 0
-1709 -1967 -2026 0
-1675 -1751 -1933 -2055 0
-1873 -1934 -1967 -2026 0
-1573 -1667 -1686 -1740 -1933 -2055 0
-1716 -1870 -1967 -1996 -2026 -2041 0
-1831 -1951 -2158 0
-1690 -1727 -1784 0
-1823 -2158 0
-1727 -1781 0
-1831 -1954 -2158 0
-1689 -1727 -1784 0
-1831 -1951 -2029 -2158 0
-1690 -1727 -1761 -1784 0
-1823 -2029 -2158 0
-1727 -1761 -1781 0
-1829 -1957 -2037 -2096 0
-1948 -2037 -2096 0
-1666 -2037 -2096 0
-1666 -2041 -2117 -2166 0
-1666 -1815 -1948 -2037 -2096 0
-1666 -1826 -1948 -2037 -2096 0
-1666 -1920 -2037 -2096 0
-1666 -1837 -1920 -1983 0
-1701 -1773 -1904 -1983 0
-1683 -2037 -2096 0
-1683 -2041 -2117 -2166 0
-1683 -1815 -1948 -2037 -2096 0
-1683 -1920 -2041 -2117 -2166 0
-1701 -1754 -2037 -2096 0
-1701 -1754 -2041 -2117 -2166 0
-1701 -1754 -1815 -1948 -2037 -2096 0
-1706 -1904 -1983 0
-1706 -1849 -1904 0
-1706 -1849 -1904 -1948 -2026 0
-1682 -1783 -1827 -1886 0
-1595 -1791 -2040 -2097 0
-1573 -1827 -1886 0
-1595 -1791 -1996 0
-1827 -1869 -1886 0
-1595 -1791 -2106 0
-1675 -1743 -1815 -1869 0
-1686 -1720 -1873 -2106 0
-1573 -1686 -1827 -1869 -1886 0
-1595 -1791 -1996 -2041 -2106 0
-1573 -1776 -1827 -1869 -1886 0
-1595 -1791 -1996 -2089 -2106 0
-1827 -1854 -1869 -1886 0
-1595 -1791 -1987 -2106 0
-1854 -1869 -1908 -1919 0
-1841 -1851 -1987 -2106 0
-1840 -1919 -2055 -2090 0
-1816 -1851 -1967 -1979 0
-1827 -1886 -2044 0
-1595 -1791 -1958 0
-1675 -1743 -1815 -2044 0
-1686 -1720 -1873 -1958 0
-1573 -1686 -1827 -1886 -2044 0
-1595 -1791 -1958 -1996 -2041 0
-1675 -1743 -1815 -1854 -2044 0
-1686 -1720 -1873 -1958 -1987 0
-1827 -1886 -1933 -2055 0
-1595 -1791 -1967 -2026 0
-1675 -1743 -1815 -1933 -2055 0
-1686 -1720 -1873 -1967 -2026 0
-1573 -1686 -1827 -1886 -1933 -2055 0
-1595 -1791 -1967 -1996 -2026 -2041 0
-1840 -1919 -2158 0
-1727 -1851 -1979 0
-1840 -1991 -2158 0
-1727 -1918 -1979 0
-1573 -1754 -1840 -1991 -2158 0
-1727 -1918 -1933 -1979 -1996 0
-1701 -1773 -2098 -2121 -2150 0
-1683 -1912 -2032 -2121 0
-1709 -2049 -2082 0
-1716 -1870 -2098 -2121 -2150 0
-1676 -1729 -1832 -2055 -2090 0
-1712 -1787 -1816 -1876 -1967 0
-1676 -1765 -1838 -2044 0
-1876 -1942 -1958 -1973 0
-1818 -1969 -2157 0
-1696 -1737 -1779 0
-1676 -1729 -1832 -2110 -2165 0
-1667 -1712 -1740 -1787 -1876 0
-1737 -1866 0
-1849 -1866 -1904 0
-1849 -1866 -1904 -1948 -2026 0
-1709 -2114 0
-1661 -2157 0
-1840 -1991 -2114 0
-1661 -1918 -1979 0
-1573 -1754 -1840 -1991 -2114 0
-1661 -1918 -1933 -1979 -1996 0
-1666 -1917 -2032 -2121 0
-1676 -1765 -1850 -1869 0
-1876 -1942 -1986 -2106 0
-1731 -1948 0
-1731 -1948 -2150 -2160 0
-1731 -1948 -2166 0
-1731 -1948 -1983 0
-1731 -1948 -2037 -2089 0
-1731 -1948 -2089 -2150 0
-1731 -1948 -2082 -2089 0
-1731 -1948 -2110 -2150 0
-1666 -1838 -1917 0
-1666 -1838 -1861 -1866 -1917 0
-1666 -1917 -1979 0
-1745 -1826 -1866 0
-1701 -1745 -1826 -1866 0
-1683 -1745 -1826 0
-1683 -1745 -1826 -1861 -1866 0
-1683 -1745 -1826 -2037 -2048 0
-1683 -1686 -1745 -1826 -1866 0
-1683 -1745 -1826 -1933 -2037 0
-1683 -1745 -1826 -1926 -1933 0
-1683 -1745 -1826 -1976 -2037 0
-1866 -1903 0
-1745 -1826 -1849 -1866 0
-1849 -1866 -1903 0
-1866 -1903 -1941 0
-1573 -1707 0
-1996 -2081 0
-1573 -1707 -1729 -1732 0
-1711 -1712 -1996 -2081 0
-1573 -1707 -1743 0
-1720 -1996 -2081 0
-1573 -1707 -1919 0
-1851 -1996 -2081 0
-1573 -1707 -1826 -1886 0
-1595 -1776 -1996 -2081 0
-1573 -1707 -1729 -1826 0
-1712 -1776 -1996 -2081 0
-1573 -1707 -1818 -1826 0
-1776 -1779 -1996 -2081 0
-1573 -1667 -1707 -1729 0
-1712 -1870 -1996 -2081 0
-1850 -1869 -1973 0
-1912 -1986 -2106 0
-1850 -1869 -1973 -2111 -2114 0
-1661 -1669 -1912 -1986 -2106 0
-1850 -1869 -1904 0
-1840 -1986 -2106 0
-1723 -1776 -2114 0
-1661 -2089 -2167 0
-1723 -1776 -2055 -2114 0
-1661 -1967 -2089 -2167 0
-1723 -1776 -2044 0
-1958 -2089 -2167 0
-1723 -1776 -2044 -2111 -2114 0
-1661 -1669 -1958 -2089 -2167 0
-1723 -1776 -1886 -1954 -2044 0
-1595 -1689 -1958 -2089 -2167 0
-1723 -1776 -2041 -2044 -2114 0
-1661 -1815 -1958 -2089 -2167 0
-1723 -1776 -1886 -2026 -2044 0
-1595 -1754 -1958 -2089 -2167 0
-1723 -1776 -2018 -2026 -2044 0
-1754 -1757 -1958 -2089 -2167 0
-1723 -1776 -1886 -1911 -2044 0
-1595 -1848 -1958 -2089 -2167 0
-1753 -2114 0
-1661 -1929 0
-1723 -1776 -1991 -2114 0
-1661 -1918 -2089 -2167 0
-1753 -1991 -2114 0
-1661 -1918 -1929 0
-1753 -2029 -2114 0
-1661 -1761 -1929 0
-1666 -2016 -2121 0
-1666 -1949 0
-1666 -1949 -2150 -2160 0
-1666 -1949 -2166 0
-1666 -1949 -1983 0
-1666 -1949 -2037 -2089 0
-1666 -1949 -2089 -2150 0
-1666 -1949 -2082 -2089 0
-1666 -1949 -2110 -2150 0
-1666 -1919 -2016 -2121 0
-1838 -1949 -1983 0
-1701 -1838 -1949 -1983 0
-1683 -2016 -2121 0
-1683 -1949 0
-1683 -1949 -2150 -2160 0
-1683 -1949 -2166 0
-1683 -1949 -1983 0
-1683 -1949 -2037 -2089 0
-1683 -1949 -2089 -2150 0
-1683 -1949 -2082 -2089 0
-1683 -1949 -2110 -2150 0
-1701 -1754 -2016 -2121 0
-1701 -1754 -1949 0
-1701 -1754 -1949 -2150 -2160 0
-1701 -1754 -1949 -2166 0
-1701 -1754 -1949 -1983 0
-1701 -1754 -1949 -2037 -2089 0
-1701 -1754 -1949 -2089 -2150 0
-1701 -1754 -1949 -2082 -2089 0
-1701 -1754 -1949 -2110 -2150 0
-1866 -1949 0
-1866 -1960 -2026 0
-1849 -1866 -1949 0
-1849 -1866 -1960 -2026 0
-1849 -1866 -1949 -1983 0
-1866 -1941 -1949 0
-1866 -1941 -1960 -2026 0
-1676 -1751 -1869 0
-1876 -1934 -2106 0
-1684 -1869 0
-2046 -2106 0
-1684 -1729 -1732 -1869 0
-1711 -1712 -2046 -2106 0
-1684 -1743 -1869 0
-1720 -2046 -2106 0
-1684 -1869 -1919 0
-1851 -2046 -2106 0
-1684 -1826 -1869 -1886 0
-1595 -1776 -2046 -2106 0
-1684 -1729 -1826 -1869 0
-1712 -1776 -2046 -2106 0
-1684 -1818 -1826 -1869 0
-1776 -1779 -2046 -2106 0
-1667 -1684 -1729 -1869 0
-1712 -1870 -2046 -2106 0
-1676 -1751 -1851 -1869 0
-1876 -1934 -1983 -2106 0
-1684 -1919 -1973 0
-1851 -1912 -2046 0
-1684 -1919 -1973 -2055 0
-1851 -1912 -1967 -2046 0
-1676 -1751 -2044 0
-1876 -1934 -1958 0
-1684 -2044 0
-1958 -2046 0
-1684 -1729 -1732 -2044 0
-1711 -1712 -1958 -2046 0
-1684 -1743 -2044 0
-1720 -1958 -2046 0
-1684 -1919 -2044 0
-1851 -1958 -2046 0
-1684 -1826 -1886 -2044 0
-1595 -1776 -1958 -2046 0
-1684 -1729 -1826 -2044 0
-1712 -1776 -1958 -2046 0
-1684 -1818 -1826 -2044 0
-1776 -1779 -1958 -2046 0
-1667 -1684 -1729 -2044 0
-1712 -1870 -1958 -2046 0
-1676 -1751 -1933 -2055 0
-1876 -1934 -1967 -2026 0
-1684 -1933 -2055 0
-1967 -2026 -2046 0
-1684 -1729 -1732 -1933 -2055 0
-1711 -1712 -1967 -2026 -2046 0
-1684 -1743 -1933 -2055 0
-1720 -1967 -2026 -2046 0
-1684 -1919 -1933 -2055 0
-1851 -1967 -2026 -2046 0
-1684 -1826 -1886 -1933 -2055 0
-1595 -1776 -1967 -2026 -2046 0
-1684 -1729 -1826 -1933 -2055 0
-1712 -1776 -1967 -2026 -2046 0
-1684 -1818 -1826 -1933 -2055 0
-1776 -1779 -1967 -2026 -2046 0
-1667 -1684 -1729 -1933 -2055 0
-1712 -1870 -1967 -2026 -2046 0
-1684 -2114 0
-1661 -2046 0
-1702 -1754 -2114 0
-1661 -1933 -2052 0
-1684 -1991 -2114 0
-1661 -1918 -2046 0
-1702 -1754 -1991 -2114 0
-1661 -1918 -1933 -2052 0
-1684 -1919 -1991 -2114 0
-1661 -1851 -1918 -2046 0
-1684 -2029 -2114 0
-1661 -1761 -2046 0
-1702 -1754 -2029 -2114 0
-1661 -1761 -1933 -2052 0
-1831 -1961 0
-1831 -1961 -2149 -2160 0
-1831 -1961 -1983 0
-1831 -1961 -2037 -2089 0
-1831 -1961 -2089 -2149 0
-1831 -1961 -2082 -2089 0
-1831 -1961 -2037 -2110 -2161 0
-1831 -1961 -2110 -2149 0
-1831 -1961 -2015 -2113 0
-1666 -1919 -1961 -2015 0
-1666 -1919 -1961 -2113 0
-1697 -1784 0
-2051 -2094 0
-1642 -1697 -1732 -1784 0
-1618 -1711 -2051 -2094 0
-1697 -1784 -1919 0
-1851 -2051 -2094 0
-1697 -1784 -1826 -1886 0
-1595 -1776 -2051 -2094 0
-1642 -1697 -1784 -1826 0
-1618 -1776 -2051 -2094 0
-1697 -1784 -1818 -1826 0
-1776 -1779 -2051 -2094 0
-1667 -1697 -1747 -1784 -1886 0
-1595 -1718 -1870 -2051 -2094 0
-1642 -1667 -1697 -1784 0
-1618 -1870 -2051 -2094 0
-1660 -1664 -1697 -1784 0
-1862 -1863 -2051 -2094 0
-1664 -1697 -1851 -1869 0
-1863 -1983 -2051 -2106 0
-1660 -1697 -1851 -1869 0
-1862 -1983 -2051 -2106 0
-1683 -1920 -1961 -2015 0
-1683 -1920 -1961 -2113 0
-1664 -1697 -1854 -2044 0
-1863 -1958 -1987 -2051 0
-1660 -1697 -1854 -2044 0
-1862 -1958 -1987 -2051 0
-1866 0
-1851 -1979 0
-1918 -1979 0
-1677 -1918 -1979 0
-1677 -1866 0
-1677 -1851 -1979 0
-1677 -1765 -1979 0
-1677 -1765 -1776 -1779 -1979 0
-1677 -1765 -1851 -1979 0
-1677 -1757 -1851 -1918 0
-1677 -1757 -1851 -1918 -2037 -2048 0
-1823 0
-1823 -2149 -2160 0
-1823 -1983 0
-1823 -2037 -2089 0
-1823 -2089 -2149 0
-1823 -2082 -2089 0
-1823 -2037 -2110 -2161 0
-1823 -2110 -2149 0
-1823 -2015 -2113 0
-1823 -2015 -2026 0
-1823 -2026 -2113 0
-1745 -1918 -1979 0
-1823 -1961 0
-1823 -1961 -2149 -2160 0
-1823 -1961 -1983 0
-1823 -1961 -2037 -2089 0
-1823 -1961 -2089 -2149 0
-1823 -1961 -2082 -2089 0
-1823 -1961 -2037 -2110 -2161 0
-1823 -1961 -2110 -2149 0
-1823 -1961 -2015 -2113 0
-1745 -1823 0
-1745 -1823 -2149 -2160 0
-1745 -1823 -1983 0
-1745 -1823 -2037 -2089 0
-1745 -1823 -2089 -2149 0
-1745 -1823 -2082 -2089 0
-1745 -1823 -2037 -2110 -2161 0
-1745 -1823 -2110 -2149 0
-1745 -1823 -2015 -2113 0
-1745 -1823 -2015 -2026 0
-1745 -1823 -2026 -2113 0
-1731 0
-1731 -2149 -2160 0
-1731 -1983 0
-1731 -2037 -2089 0
-1731 -2089 -2149 0
-1731 -2082 -2089 0
-1731 -2037 -2110 -2161 0
-1731 -2110 -2149 0
-1731 -2015 -2113 0
-1731 -1979 -2026 0
-1731 -2037 -2160 0
-1731 -2117 0
-1731 -2037 -2089 -2117 0
-1731 -2110 -2113 0
-1731 -1961 0
-1731 -1961 -2149 -2160 0
-1731 -1961 -1983 0
-1731 -1961 -2037 -2089 0
-1731 -1961 -2089 -2149 0
-1731 -1961 -2082 -2089 0
-1731 -1961 -2037 -2110 -2161 0
-1731 -1961 -2110 -2149 0
-1731 -1961 -2015 -2113 0
-1731 -1911 -1961 -1979 0
-1731 -1954 -1957 0
-1731 -1954 -1957 -2037 -2160 0
-1731 -1954 -1957 -2117 0
-1731 -1954 -1957 -2037 -2089 -2117 0
-1731 -1954 -1957 -2110 -2113 0
-1817 -1961 0
-1817 -1961 -2149 -2160 0
-1817 -1961 -1983 0
-1817 -1961 -2037 -2089 0
-1817 -1961 -2089 -2149 0
-1817 -1961 -2082 -2089 0
-1817 -1961 -2037 -2110 -2161 0
-1817 -1961 -2110 -2149 0
-1817 -1961 -2015 -2113 0
-1745 -1866 0
-1745 -1851 -1979 0
-1660 -1666 -1851 -1979 0
-1666 0
-1666 -2149 -2160 0
-1666 -1983 0
-1666 -2037 -2089 0
-1666 -2089 -2149 0
-1666 -2082 -2089 0
-1666 -2037 -2110 -2161 0
-1666 -2110 -2149 0
-1666 -2015 -2113 0
-1666 -2037 -2160 0
-1666 -2117 0
-1666 -2037 -2089 -2117 0
-1666 -2110 -2113 0
-1666 -2161 0
-1666 -2089 -2117 -2149 0
-1666 -2027 -2117 0
-1666 -2027 0
-1666 -2027 -2037 -2160 0
-1666 -2027 -2037 -2089 -2117 0
-1666 -2027 -2110 -2113 0
-1666 -2098 0
-1666 -2082 -2117 -2149 0
-1666 -1961 0
-1666 -1961 -2149 -2160 0
-1666 -1961 -1983 0
-1666 -1961 -2037 -2089 0
-1666 -1961 -2089 -2149 0
-1666 -1961 -2082 -2089 0
-1666 -1961 -2037 -2110 -2161 0
-1666 -1961 -2110 -2149 0
-1666 -1961 -2015 -2113 0
-1666 -1911 -1961 -2015 0
-1666 -1911 -1961 -2113 0
-1666 -1979 -2098 -2117 -2149 0
-1666 -1976 -1979 0
-1666 -1976 -1979 -2161 0
-1666 -1976 -1979 -2117 0
-1666 -1976 -1979 -2089 -2117 -2149 0
-1666 -1976 -1979 -2149 -2160 0
-1666 -2015 -2026 0
-1666 -2026 -2113 0
-1666 -1861 -1866 0
-1666 -2037 -2048 0
-1666 -1686 -1866 0
-1666 -1926 -1933 0
-1666 -1933 -2037 0
-1666 -1976 -2037 0
-1666 -1861 -1866 -1961 0
-1666 -1961 -2037 -2048 0
-1666 -1686 -1866 -1961 0
-1666 -1933 -1961 -2037 0
-1666 -1926 -1933 -1961 0
-1666 -1961 -1976 -2037 0
-1660 -1666 -1866 0
-1666 -1848 -1866 0
-1666 -1779 -1848 0
-1666 -1848 -1866 -1961 0
-1666 -1779 -1848 -1961 0
-1666 -1851 0
-1666 -1851 -1961 0
-1666 -1851 -1861 -1866 0
-1666 -1851 -1861 -1866 -1961 0
-1666 -1787 -1851 0
-1666 -1787 -1851 -1961 0
-1666 -1912 -2098 -2117 -2149 0
-1666 -1912 -1933 0
-1666 -1912 -1933 -2117 0
-1666 -1912 -1933 -2015 -2089 -2117 0
-1666 -1912 -1933 -2015 -2160 0
-1666 -1912 -1933 -2161 0
-1666 -1912 -1933 -2117 -2161 0
-1666 -1912 -1933 -2037 -2082 0
-1666 -1912 -1933 -2049 0
-1666 -1912 -1933 -2049 -2161 0
-1666 -1912 -1933 -2049 -2117 0
-1666 -1912 -1933 -2049 -2089 -2117 -2149 0
-1666 -1912 -1933 -2049 -2149 -2160 0
-1666 -1912 -1983 -2037 0
-1666 -1912 -1983 -2037 -2117 0
-1666 -1912 -1976 0
-1666 -1912 -1976 -2161 0
-1666 -1912 -1976 -2117 0
-1666 -1912 -1976 -2089 -2117 -2149 0
-1666 -1912 -1976 -2149 -2160 0
-2098 -2117 -2149 0
-1941 -1983 -2037 0
-1941 -1983 -2037 -2117 0
-1776 -1779 -2098 -2117 -2149 0
-1851 -2098 -2117 -2149 0
-1851 -1912 0
-1851 -1912 -1961 0
-1851 -1912 -2037 -2048 0
-1851 -1912 -1961 -2037 -2048 0
-1851 -1961 -1979 0
-1731 -1817 -1851 -1979 0
-1834 -1851 -1979 0
-1851 -1911 -1983 0
-1851 -1961 -1983 -2026 0
-1866 -1961 0
-1731 -1817 -1866 0
-1834 -1866 0
-1660 -1840 -1866 -1918 0
-1765 -1866 0
-1745 -1765 -1866 0
-1660 -1683 -1866 0
-1660 -1683 -1866 -1918 0
-1701 -2098 -2117 -2149 0
-1701 -1941 -1983 -2037 0
-1701 -1941 -1983 -2037 -2117 0
-1701 -1866 0
-1701 -1745 -1866 0
-1701 -1866 -1961 0
-1701 -1731 -1817 -1866 0
-1701 -1834 -1866 0
-1660 -1701 -1754 -1866 0
-1701 -1765 -1866 0
-1701 -1765 -1866 -1961 0
-1660 -1701 -1757 -1866 0
-1701 -1840 -1866 -1912 0
-1701 -1840 -1866 -1912 -1961 0
-1701 -1787 -2098 -2117 -2149 0
-1683 0
-1683 -1861 -1866 0
-1683 -2037 -2048 0
-1683 -1686 -1866 0
-1683 -1926 -1933 0
-1683 -1933 -2037 0
-1683 -1976 -2037 0
-1683 -1745 0
-1683 -1745 -1861 -1866 0
-1683 -1745 -2037 -2048 0
-1683 -1686 -1745 -1866 0
-1683 -1745 -1926 -1933 0
-1683 -1745 -1933 -2037 0
-1683 -1745 -1976 -2037 0
-1683 -1961 0
-1683 -1861 -1866 -1961 0
-1683 -1961 -2037 -2048 0
-1683 -1686 -1866 -1961 0
-1683 -1933 -1961 -2037 0
-1683 -1926 -1933 -1961 0
-1683 -1961 -1976 -2037 0
-1683 -2149 -2160 0
-1683 -1983 0
-1683 -2037 -2089 0
-1683 -2089 -2149 0
-1683 -2082 -2089 0
-1683 -2037 -2110 -2161 0
-1683 -2110 -2149 0
-1683 -2015 -2113 0
-1683 -2037 -2160 0
-1683 -2117 0
-1683 -2037 -2089 -2117 0
-1683 -2110 -2113 0
-1683 -2161 0
-1683 -2089 -2117 -2149 0
-1683 -2027 -2117 0
-1683 -2027 0
-1683 -2027 -2037 -2160 0
-1683 -2027 -2037 -2089 -2117 0
-1683 -2027 -2110 -2113 0
-1683 -2098 0
-1683 -2082 -2117 -2149 0
-1683 -1961 -2149 -2160 0
-1683 -1961 -1983 0
-1683 -1961 -2037 -2089 0
-1683 -1961 -2089 -2149 0
-1683 -1961 -2082 -2089 0
-1683 -1961 -2037 -2110 -2161 0
-1683 -1961 -2110 -2149 0
-1683 -1961 -2015 -2113 0
-1683 -1911 -1961 -2015 0
-1683 -1911 -1961 -2113 0
-1683 -1979 -2098 -2117 -2149 0
-1683 -1976 -1979 0
-1683 -1976 -1979 -2161 0
-1683 -1976 -1979 -2117 0
-1683 -1976 -1979 -2089 -2117 -2149 0
-1683 -1976 -1979 -2149 -2160 0
-1683 -2015 -2026 0
-1683 -2026 -2113 0
-1683 -1731 -1817 0
-1683 -1731 -1817 -1861 -1866 0
-1683 -1731 -1817 -2037 -2048 0
-1683 -1686 -1731 -1817 -1866 0
-1683 -1731 -1817 -1926 -1933 0
-1683 -1731 -1817 -1933 -2037 0
-1683 -1731 -1817 -1976 -2037 0
-1683 -1834 0
-1683 -1834 -1861 -1866 0
-1683 -1834 -2037 -2048 0
-1683 -1686 -1834 -1866 0
-1683 -1834 -1926 -1933 0
-1683 -1834 -1933 -2037 0
-1683 -1834 -1976 -2037 0
-1683 -1912 -2015 0
-1683 -1912 -2113 0
-1683 -1912 -1979 0
-1683 -1912 -2026 0
-1683 -1912 -2026 -2037 -2160 0
-1683 -1912 -2026 -2117 0
-1683 -1912 -2026 -2037 -2089 -2117 0
-1683 -1912 -2026 -2110 -2113 0
-1683 -1911 -1912 0
-1683 -1911 -1912 -2149 -2160 0
-1683 -1911 -1912 -1983 0
-1683 -1911 -1912 -2037 -2089 0
-1683 -1911 -1912 -2089 -2149 0
-1683 -1911 -1912 -2082 -2089 0
-1683 -1911 -1912 -2037 -2110 -2161 0
-1683 -1911 -1912 -2110 -2149 0
-1683 -1911 -1912 -2015 -2113 0
-1683 -1911 -1912 -2037 -2160 0
-1683 -1911 -1912 -2117 0
-1683 -1911 -1912 -2037 -2089 -2117 0
-1683 -1911 -1912 -2110 -2113 0
-1683 -1912 -1954 0
-1683 -1912 -1954 -2037 -2160 0
-1683 -1912 -1954 -2117 0
-1683 -1912 -1954 -2037 -2089 -2117 0
-1683 -1912 -1954 -2110 -2113 0
-1683 -1912 -1961 -2015 0
-1683 -1912 -1961 -2113 0
-1683 -1912 -1961 -1979 0
-1683 -1912 -1961 -2026 0
-1683 -1912 -1961 -2026 -2149 -2160 0
-1683 -1912 -1961 -1983 -2026 0
-1683 -1912 -1961 -2026 -2037 -2089 0
-1683 -1912 -1961 -2026 -2089 -2149 0
-1683 -1912 -1961 -2026 -2082 -2089 0
-1683 -1912 -1961 -2026 -2037 -2110 -2161 0
-1683 -1912 -1961 -2026 -2110 -2149 0
-1683 -1912 -1961 -2015 -2026 -2113 0
-1660 -1701 -1851 -1918 0
-1660 -1701 -1851 -1918 -2037 -2048 0
-1701 -1754 0
-1701 -1754 -2149 -2160 0
-1701 -1754 -1983 0
-1701 -1754 -2037 -2089 0
-1701 -1754 -2089 -2149 0
-1701 -1754 -2082 -2089 0
-1701 -1754 -2037 -2110 -2161 0
-1701 -1754 -2110 -2149 0
-1701 -1754 -2015 -2113 0
-1701 -1754 -2037 -2160 0
-1701 -1754 -2117 0
-1701 -1754 -2037 -2089 -2117 0
-1701 -1754 -2110 -2113 0
-1701 -1754 -2161 0
-1701 -1754 -2089 -2117 -2149 0
-1701 -1754 -2027 -2117 0
-1701 -1754 -2027 0
-1701 -1754 -2027 -2037 -2160 0
-1701 -1754 -2027 -2037 -2089 -2117 0
-1701 -1754 -2027 -2110 -2113 0
-1701 -1754 -2098 0
-1701 -1754 -2082 -2117 -2149 0
-1701 -1754 -1961 0
-1701 -1754 -1961 -2149 -2160 0
-1701 -1754 -1961 -1983 0
-1701 -1754 -1961 -2037 -2089 0
-1701 -1754 -1961 -2089 -2149 0
-1701 -1754 -1961 -2082 -2089 0
-1701 -1754 -1961 -2037 -2110 -2161 0
-1701 -1754 -1961 -2110 -2149 0
-1701 -1754 -1961 -2015 -2113 0
-1701 -1754 -1911 -1961 -2015 0
-1701 -1754 -1911 -1961 -2113 0
-1701 -1754 -1979 -2098 -2117 -2149 0
-1701 -1754 -1976 -1979 0
-1701 -1754 -1976 -1979 -2161 0
-1701 -1754 -1976 -1979 -2117 0
-1701 -1754 -1976 -1979 -2089 -2117 -2149 0
-1701 -1754 -1976 -1979 -2149 -2160 0
-1701 -1754 -2015 -2026 0
-1701 -1754 -2026 -2113 0
-1701 -1765 -1817 -1961 0
-1701 -1765 -1817 -1961 -2149 -2160 0
-1701 -1765 -1817 -1961 -1983 0
-1701 -1765 -1817 -1961 -2037 -2089 0
-1701 -1765 -1817 -1961 -2089 -2149 0
-1701 -1765 -1817 -1961 -2082 -2089 0
-1701 -1765 -1817 -1961 -2037 -2110 -2161 0
-1701 -1765 -1817 -1961 -2110 -2149 0
-1701 -1765 -1817 -1961 -2015 -2113 0
-1941 -2098 -2117 -2149 0
-2049 -2082 0
-1660 -1754 -1866 0
-1765 -1866 -1961 0
-1660 -1757 -1866 0
-1840 -1866 -1912 0
-1840 -1866 -1912 -1961 0
-1866 -2117 0
-1866 -1918 0
-1866 -1918 -1961 0
-1866 -2027 0
-1866 -1961 -2027 0
-1866 -2027 -2117 0
-1866 -1983 0
-1866 -1983 -2117 0
-1866 -1983 -2098 0
-1866 -1976 -2082 0
-1660 -1848 -1866 0
-1840 -1848 -1866 0
-1840 -1848 -1866 -1961 0
-1840 -1848 -1866 -2117 0
-1840 -1848 -1866 -1918 0
-1840 -1848 -1866 -1918 -1961 0
-1840 -1848 -1866 -2027 0
-1840 -1848 -1866 -1961 -2027 0
-1840 -1848 -1866 -2027 -2117 0
-1866 -1941 0
-1866 -1941 -1961 0
-1866 -1941 -2117 0
-1866 -1918 -1941 0
-1866 -1918 -1941 -1961 0
-1866 -1941 -2027 0
-1866 -1941 -1961 -2027 0
-1866 -1941 -2027 -2117 0
-1866 -1941 -2048 -2082 0
-1719 -2049 -2082 0
-1686 -1719 -1879 -1933 -2098 -2117 -2149 0
-1618 -1776 -2098 -2117 -2149 0
-1618 -1866 -2049 -2082 0
-1618 -1711 -2098 -2117 -2149 0
-1618 -1711 -1941 -2098 -2117 -2149 0
-1618 -1879 -1926 -2098 -2117 -2149 0
-1618 -1776 -1879 -1941 -2098 -2117 -2149 0
-1618 -1861 -1941 -2098 -2117 -2149 0
-1618 -1776 -1861 -1926 -2098 -2117 -2149 0
-1719 -1879 -2049 -2082 0
-1719 -2098 -2117 -2149 0
-1719 -1941 -2098 -2117 -2149 0
-1879 -2049 -2082 0
-2114 0
-1661 0
-1904 -1983 0
-1840 -1919 0
-1849 -1904 0
-1840 -1991 0
-1849 -1878 -1904 0
-1840 -1991 -2124 0
-1878 -2114 0
-1661 -2124 0
-1878 -1904 -1983 0
-1840 -1919 -2124 0
-1878 -1904 -1942 0
-1840 -2032 -2124 0
-1878 -1904 -1942 -2082 -2089 0
-1818 -1826 -1840 -2032 -2124 0
-1878 -1904 -1942 -1983 0
-1840 -1919 -2032 -2124 0
-1849 -1878 -1926 -1983 0
-1919 -1991 -2018 -2124 0
-1849 -1878 -1886 -1926 -1954 -1983 0
-1595 -1689 -1919 -1991 -2018 -2124 0
-1781 0
-2087 0
-1642 -1732 -1781 0
-1618 -1711 -2087 0
-1781 -1919 0
-1851 -2087 0
-1781 -1826 -1886 0
-1595 -1776 -2087 0
-1642 -1781 -1826 0
-1618 -1776 -2087 0
-1781 -1818 -1826 0
-1776 -1779 -2087 0
-1667 -1747 -1781 -1886 0
-1595 -1718 -1870 -2087 0
-1642 -1667 -1781 0
-1618 -1870 -2087 0
-1660 -1664 -1781 0
-1862 -1863 -2087 0
-1664 -1754 -1781 0
-1863 -1933 -2087 0
-1660 -1754 -1781 0
-1862 -1933 -2087 0
-1723 -1849 -1904 0
-1840 -1991 -2167 0
-1697 -1781 0
-2051 -2087 0
-1642 -1697 -1732 -1781 0
-1618 -1711 -2051 -2087 0
-1697 -1781 -1919 0
-1851 -2051 -2087 0
-1697 -1781 -1826 -1886 0
-1595 -1776 -2051 -2087 0
-1642 -1697 -1781 -1826 0
-1618 -1776 -2051 -2087 0
-1697 -1781 -1818 -1826 0
-1776 -1779 -2051 -2087 0
-1667 -1697 -1747 -1781 -1886 0
-1595 -1718 -1870 -2051 -2087 0
-1642 -1667 -1697 -1781 0
-1618 -1870 -2051 -2087 0
-1660 -1664 -1697 -1781 0
-1862 -1863 -2051 -2087 0
-1723 -1781 0
-2087 -2167 0
-1642 -1723 -1732 -1781 0
-1618 -1711 -2087 -2167 0
-1723 -1781 -1919 0
-1851 -2087 -2167 0
-1723 -1781 -1826 -1886 0
-1595 -1776 -2087 -2167 0
-1642 -1723 -1781 -1826 0
-1618 -1776 -2087 -2167 0
-1723 -1781 -1818 -1826 0
-1776 -1779 -2087 -2167 0
-1667 -1723 -1747 -1781 -1886 0
-1595 -1718 -1870 -2087 -2167 0
-1642 -1667 -1723 -1781 0
-1618 -1870 -2087 -2167 0
-1660 -1664 -1723 -1781 0
-1862 -1863 -2087 -2167 0
-1664 -1723 -1754 -1781 0
-1863 -1933 -2087 -2167 0
-1660 -1723 -1754 -1781 0
-1862 -1933 -2087 -2167 0
-1707 0
-2081 0
-1642 -1707 -1732 0
-1618 -1711 -2081 0
-1707 -1919 0
-1851 -2081 0
-1707 -1826 -1886 0
-1595 -1776 -2081 0
-1642 -1707 -1826 0
-1618 -1776 -2081 0
-1707 -1818 -1826 0
-1776 -1779 -2081 0
-1667 -1707 -1747 -1886 0
-1595 -1718 -1870 -2081 0
-1642 -1667 -1707 0
-1618 -1870 -2081 0
-1660 -1664 -1707 0
-1862 -1863 -2081 0
-1707 -1754 -1904 0
-1840 -1933 -2081 0
-1707 -1732 -1886 0
-1595 -1711 -2081 0
-1675 -1707 0
-1873 -2081 0
-1675 -1707 -1826 -1886 0
-1595 -1776 -1873 -2081 0
-1660 -1667 -1707 0
-1862 -1870 -2081 0
-1697 -1707 0
-2051 -2081 0
-1642 -1697 -1707 -1732 0
-1618 -1711 -2051 -2081 0
-1697 -1707 -1919 0
-1851 -2051 -2081 0
-1697 -1707 -1826 -1886 0
-1595 -1776 -2051 -2081 0
-1642 -1697 -1707 -1826 0
-1618 -1776 -2051 -2081 0
-1697 -1707 -1818 -1826 0
-1776 -1779 -2051 -2081 0
-1667 -1697 -1707 -1747 -1886 0
-1595 -1718 -1870 -2051 -2081 0
-1642 -1667 -1697 -1707 0
-1618 -1870 -2051 -2081 0
-1660 -1664 -1697 -1707 0
-1862 -1863 -2051 -2081 0
-1697 -1707 -1848 -1904 0
-1840 -1976 -2051 -2081 0
-1682 -1689 -1707 0
-2040 -2048 -2081 0
-1682 -1689 -1707 -1732 -1886 0
-1595 -1711 -2040 -2048 -2081 0
-1675 -1682 -1689 -1707 0
-1873 -2040 -2048 -2081 0
-1675 -1682 -1689 -1707 -1826 -1886 0
-1595 -1776 -1873 -2040 -2048 -2081 0
-1660 -1667 -1682 -1689 -1707 0
-1862 -1870 -2040 -2048 -2081 0
-1697 -1777 0
-2051 -2091 0
-1642 -1697 -1732 -1777 0
-1618 -1711 -2051 -2091 0
-1697 -1777 -1919 0
-1851 -2051 -2091 0
-1697 -1777 -1826 -1886 0
-1595 -1776 -2051 -2091 0
-1642 -1697 -1777 -1826 0
-1618 -1776 -2051 -2091 0
-1697 -1777 -1818 -1826 0
-1776 -1779 -2051 -2091 0
-1667 -1697 -1747 -1777 -1886 0
-1595 -1718 -1870 -2051 -2091 0
-1642 -1667 -1697 -1777 0
-1618 -1870 -2051 -2091 0
-1660 -1664 -1697 -1777 0
-1862 -1863 -2051 -2091 0
-1723 -2114 0
-1661 -2167 0
-1723 -1904 -1983 0
-1840 -1919 -2167 0
-1862 -1869 -1904 -1983 0
-1840 -1919 -2106 -2113 0
-1869 0
-2106 0
-1642 -1732 -1869 0
-1618 -1711 -2106 0
-1869 -1919 0
-1851 -2106 0
-1826 -1869 -1886 0
-1595 -1776 -2106 0
-1642 -1826 -1869 0
-1618 -1776 -2106 0
-1818 -1826 -1869 0
-1776 -1779 -2106 0
-1667 -1747 -1869 -1886 0
-1595 -1718 -1870 -2106 0
-1642 -1667 -1869 0
-1618 -1870 -2106 0
-1660 -1664 -1869 0
-1862 -1863 -2106 0
-1732 -1869 -1886 0
-1595 -1711 -2106 0
-1675 -1869 0
-1873 -2106 0
-1675 -1826 -1869 -1886 0
-1595 -1776 -1873 -2106 0
-1660 -1667 -1869 0
-1862 -1870 -2106 0
-1747 -1869 0
-1718 -2106 0
-1642 -1675 -1826 -1869 0
-1618 -1776 -1873 -2106 0
-1675 -1769 -1869 0
-1873 -1940 -2106 0
-1769 -1869 0
-1940 -2106 0
-1732 -1769 -1869 -1886 0
-1595 -1711 -1940 -2106 0
-1675 -1769 -1826 -1869 -1886 0
-1595 -1776 -1873 -1940 -2106 0
-1660 -1667 -1769 -1869 0
-1862 -1870 -1940 -2106 0
-1832 -1869 0
-1787 -2106 0
-1642 -1675 -1818 -1869 0
-1618 -1779 -1873 -2106 0
-1697 -1869 0
-2051 -2106 0
-1642 -1697 -1732 -1869 0
-1618 -1711 -2051 -2106 0
-1697 -1869 -1919 0
-1851 -2051 -2106 0
-1697 -1826 -1869 -1886 0
-1595 -1776 -2051 -2106 0
-1642 -1697 -1826 -1869 0
-1618 -1776 -2051 -2106 0
-1697 -1818 -1826 -1869 0
-1776 -1779 -2051 -2106 0
-1667 -1697 -1747 -1869 -1886 0
-1595 -1718 -1870 -2051 -2106 0
-1642 -1667 -1697 -1869 0
-1618 -1870 -2051 -2106 0
-1660 -1664 -1697 -1869 0
-1862 -1863 -2051 -2106 0
-1664 -1697 -1848 -1869 0
-1863 -1976 -2051 -2106 0
-1660 -1697 -1848 -1869 0
-1862 -1976 -2051 -2106 0
-1642 -1675 -1832 -1869 -1904 0
-1618 -1787 -1840 -1873 -2106 0
-1869 -1904 -1911 0
-1840 -1848 -2106 0
-1747 -1869 -1904 -1911 0
-1718 -1840 -1848 -2106 0
-1675 -1869 -1904 -1911 0
-1840 -1848 -1873 -2106 0
-1642 -1675 -1826 -1869 -1904 -1911 0
-1618 -1776 -1840 -1848 -1873 -2106 0
-1642 -1732 -1869 -1904 -1911 0
-1618 -1711 -1840 -1848 -2106 0
-1664 -1754 -1869 0
-1863 -1933 -2106 0
-1660 -1754 -1869 0
-1862 -1933 -2106 0
-1869 -2111 -2114 0
-1661 -1669 -2106 0
-1869 -1886 -1954 0
-1595 -1689 -2106 0
-1869 -2041 -2114 0
-1661 -1815 -2106 0
-1869 -2018 -2026 0
-1754 -1757 -2106 0
-1869 -1886 -2026 0
-1595 -1754 -2106 0
-1869 -1886 -1911 0
-1595 -1848 -2106 0
-1697 -1869 -2111 -2114 0
-1661 -1669 -2051 -2106 0
-1697 -1869 -1886 -1954 0
-1595 -1689 -2051 -2106 0
-1697 -1869 -2041 -2114 0
-1661 -1815 -2051 -2106 0
-1697 -1869 -1886 -2026 0
-1595 -1754 -2051 -2106 0
-1697 -1869 -2018 -2026 0
-1754 -1757 -2051 -2106 0
-1697 -1869 -1886 -1911 0
-1595 -1848 -2051 -2106 0
-1862 -1869 -2114 0
-1661 -2106 -2113 0
-1869 -1976 -2114 0
-1661 -1911 -2106 0
-1869 -1976 -2082 0
-1818 -1911 -2106 0
-1697 -1869 -1976 -2114 0
-1661 -1911 -2051 -2106 0
-1697 -1869 -1976 -2082 0
-1818 -1911 -2051 -2106 0
-1869 -1983 0
-1919 -2106 0
-1697 -1869 -1983 0
-1919 -2051 -2106 0
-1869 -1983 -2111 -2114 0
-1661 -1669 -1919 -2106 0
-1697 -1869 -1983 -2111 -2114 0
-1661 -1669 -1919 -2051 -2106 0
-1869 -1983 -2098 0
-1832 -1919 -2106 0
-1697 -1869 -1983 -2098 0
-1832 -1919 -2051 -2106 0
-1642 -1675 -1832 -1838 -1869 0
-1618 -1787 -1873 -1973 -2106 0
-1838 -1869 -2026 0
-1754 -1973 -2106 0
-1675 -1838 -1869 -2026 0
-1754 -1873 -1973 -2106 0
-1664 -1675 -1826 -1838 -1869 -2026 0
-1754 -1776 -1863 -1873 -1973 -2106 0
-1664 -1732 -1838 -1869 -2026 0
-1711 -1754 -1863 -1973 -2106 0
-1747 -1838 -1869 -2026 0
-1718 -1754 -1973 -2106 0
-1675 -1747 -1838 -1869 -2026 0
-1718 -1754 -1873 -1973 -2106 0
-1818 -1838 -1869 -1886 -2026 0
-1595 -1754 -1779 -1973 -2106 0
-1838 -1869 -1969 -2026 0
-1696 -1754 -1973 -2106 0
-1747 -1838 -1869 -1969 -2026 0
-1696 -1718 -1754 -1973 -2106 0
-1675 -1838 -1869 -1969 -2026 0
-1696 -1754 -1873 -1973 -2106 0
-1642 -1675 -1826 -1838 -1869 -1969 -2026 0
-1618 -1696 -1754 -1776 -1873 -1973 -2106 0
-1642 -1732 -1838 -1869 -1969 -2026 0
-1618 -1696 -1711 -1754 -1973 -2106 0
-1838 -1869 -1886 -1919 0
-1595 -1851 -1973 -2106 0
-1675 -1838 -1869 -1886 -1919 0
-1595 -1851 -1873 -1973 -2106 0
-1838 -1869 -1911 0
-1848 -1973 -2106 0
-1747 -1838 -1869 -1911 0
-1718 -1848 -1973 -2106 0
-1675 -1838 -1869 -1911 0
-1848 -1873 -1973 -2106 0
-1642 -1675 -1826 -1838 -1869 -1911 0
-1618 -1776 -1848 -1873 -1973 -2106 0
-1642 -1732 -1838 -1869 -1911 0
-1618 -1711 -1848 -1973 -2106 0
-1642 -1675 -1832 0
-1618 -1787 -1873 0
-1886 -1919 -2029 0
-1595 -1761 -1851 0
-1675 -1886 -1919 -2029 0
-1595 -1761 -1851 -1873 0
-1642 -1675 -1832 -2082 -2089 0
-1618 -1787 -1818 -1826 -1873 0
-1642 -1675 -1832 -1983 0
-1618 -1787 -1873 -1919 0
-1838 -1983 0
-1919 -1973 0
-1697 -1838 -1983 0
-1919 -1973 -2051 0
-1838 -1886 -1954 -1983 0
-1595 -1689 -1919 -1973 0
-1697 -1838 -1886 -1954 -1983 0
-1595 -1689 -1919 -1973 -2051 0
-1697 -1904 -1983 0
-1840 -1919 -2051 0
-1707 -1777 -1904 -1983 0
-1840 -1919 -2081 -2091 0
-1790 -1904 -1983 0
-1840 -1919 -2099 0
-1848 -1919 -1983 0
-1851 -1919 -1976 0
-1697 -1754 -1919 -1983 0
-1851 -1919 -1933 -2051 0
-1697 -2114 0
-1661 -2051 0
-1707 -1777 -2114 0
-1661 -2081 -2091 0
-1790 -2114 0
-1661 -2099 0
-1849 -1862 -1979 -2114 0
-1661 -1904 -1991 -2113 0
-1942 -2114 0
-1661 -2032 0
-1723 -1942 -2114 0
-1661 -2032 -2167 0
-1862 -2044 -2114 0
-1661 -1958 -2113 0
-1849 -1862 -2044 -2114 0
-1661 -1958 -1991 -2113 0
-1642 -1675 -1832 -2055 0
-1618 -1787 -1873 -1967 0
-1886 -1919 -2029 -2055 0
-1595 -1761 -1851 -1967 0
-1675 -1886 -1919 -2029 -2055 0
-1595 -1761 -1851 -1873 -1967 0
-2055 -2114 0
-1661 -1967 0
-1723 -2055 -2114 0
-1661 -1967 -2167 0
-1697 -2055 -2114 0
-1661 -1967 -2051 0
-1707 -1777 -2055 -2114 0
-1661 -1967 -2081 -2091 0
-1790 -2055 -2114 0
-1661 -1967 -2099 0
-1862 -1933 -2055 -2114 0
-1661 -1967 -2026 -2113 0
-1942 -2055 -2114 0
-1661 -1967 -2032 0
-1697 -1942 -2055 -2114 0
-1661 -1967 -2032 -2051 0
-1862 -1926 -2055 -2114 0
-1661 -1967 -2018 -2113 0
-1838 -1979 -2055 -2114 0
-1661 -1904 -1967 -1973 0
-1697 -1838 -1979 -2055 -2114 0
-1661 -1904 -1967 -1973 -2051 0
-1642 -1675 -1832 -2055 -2098 0
-1618 -1787 -1832 -1873 -1967 0
-2044 0
-1958 0
-2044 -2111 -2114 0
-1661 -1669 -1958 0
-1886 -1954 -2044 0
-1595 -1689 -1958 0
-2041 -2044 -2114 0
-1661 -1815 -1958 0
-2018 -2026 -2044 0
-1754 -1757 -1958 0
-1886 -2026 -2044 0
-1595 -1754 -1958 0
-1886 -1911 -2044 0
-1595 -1848 -1958 0
-1723 -2044 0
-1958 -2167 0
-1723 -2044 -2111 -2114 0
-1661 -1669 -1958 -2167 0
-1723 -1886 -1954 -2044 0
-1595 -1689 -1958 -2167 0
-1723 -2041 -2044 -2114 0
-1661 -1815 -1958 -2167 0
-1723 -2018 -2026 -2044 0
-1754 -1757 -1958 -2167 0
-1723 -1886 -2026 -2044 0
-1595 -1754 -1958 -2167 0
-1723 -1886 -1911 -2044 0
-1595 -1848 -1958 -2167 0
-1697 -2044 0
-1958 -2051 0
-1697 -2044 -2111 -2114 0
-1661 -1669 -1958 -2051 0
-1697 -1886 -1954 -2044 0
-1595 -1689 -1958 -2051 0
-1697 -2041 -2044 -2114 0
-1661 -1815 -1958 -2051 0
-1697 -1886 -2026 -2044 0
-1595 -1754 -1958 -2051 0
-1697 -2018 -2026 -2044 0
-1754 -1757 -1958 -2051 0
-1697 -1886 -1911 -2044 0
-1595 -1848 -1958 -2051 0
-1642 -1732 -2044 0
-1618 -1711 -1958 0
-1919 -2044 0
-1851 -1958 0
-1826 -1886 -2044 0
-1595 -1776 -1958 0
-1642 -1826 -2044 0
-1618 -1776 -1958 0
-1818 -1826 -2044 0
-1776 -1779 -1958 0
-1667 -1747 -1886 -2044 0
-1595 -1718 -1870 -1958 0
-1642 -1667 -2044 0
-1618 -1870 -1958 0
-1660 -1664 -2044 0
-1862 -1863 -1958 0
-1732 -1886 -2044 0
-1595 -1711 -1958 0
-1675 -2044 0
-1873 -1958 0
-1675 -1826 -1886 -2044 0
-1595 -1776 -1873 -1958 0
-1660 -1667 -2044 0
-1862 -1870 -1958 0
-1747 -2044 0
-1718 -1958 0
-1642 -1675 -1826 -2044 0
-1618 -1776 -1873 -1958 0
-1675 -1769 -2044 0
-1873 -1940 -1958 0
-1769 -2044 0
-1940 -1958 0
-1732 -1769 -1886 -2044 0
-1595 -1711 -1940 -1958 0
-1675 -1769 -1826 -1886 -2044 0
-1595 -1776 -1873 -1940 -1958 0
-1660 -1667 -1769 -2044 0
-1862 -1870 -1940 -1958 0
-1832 -2044 0
-1787 -1958 0
-1642 -1675 -1818 -2044 0
-1618 -1779 -1873 -1958 0
-1642 -1697 -1732 -2044 0
-1618 -1711 -1958 -2051 0
-1697 -1919 -2044 0
-1851 -1958 -2051 0
-1697 -1826 -1886 -2044 0
-1595 -1776 -1958 -2051 0
-1642 -1697 -1826 -2044 0
-1618 -1776 -1958 -2051 0
-1697 -1818 -1826 -2044 0
-1776 -1779 -1958 -2051 0
-1667 -1697 -1747 -1886 -2044 0
-1595 -1718 -1870 -1958 -2051 0
-1642 -1667 -1697 -2044 0
-1618 -1870 -1958 -2051 0
-1660 -1664 -1697 -2044 0
-1862 -1863 -1958 -2051 0
-1664 -1697 -1848 -2044 0
-1863 -1958 -1976 -2051 0
-1660 -1697 -1848 -2044 0
-1862 -1958 -1976 -2051 0
-1642 -1675 -1832 -1904 -2044 0
-1618 -1787 -1840 -1873 -1958 0
-1904 -1911 -2044 0
-1840 -1848 -1958 0
-1747 -1904 -1911 -2044 0
-1718 -1840 -1848 -1958 0
-1675 -1904 -1911 -2044 0
-1840 -1848 -1873 -1958 0
-1642 -1675 -1826 -1904 -1911 -2044 0
-1618 -1776 -1840 -1848 -1873 -1958 0
-1642 -1732 -1904 -1911 -2044 0
-1618 -1711 -1840 -1848 -1958 0
-1664 -1754 -2044 0
-1863 -1933 -1958 0
-1660 -1754 -2044 0
-1862 -1933 -1958 0
-1707 -1777 -2044 0
-1958 -2081 -2091 0
-1707 -1777 -2044 -2111 -2114 0
-1661 -1669 -1958 -2081 -2091 0
-1707 -1777 -1886 -1954 -2044 0
-1595 -1689 -1958 -2081 -2091 0
-1707 -1777 -2041 -2044 -2114 0
-1661 -1815 -1958 -2081 -2091 0
-1707 -1777 -2018 -2026 -2044 0
-1754 -1757 -1958 -2081 -2091 0
-1707 -1777 -1886 -2026 -2044 0
-1595 -1754 -1958 -2081 -2091 0
-1707 -1777 -1886 -1911 -2044 0
-1595 -1848 -1958 -2081 -2091 0
-1790 -2044 0
-1958 -2099 0
-1790 -2044 -2111 -2114 0
-1661 -1669 -1958 -2099 0
-1790 -1886 -1954 -2044 0
-1595 -1689 -1958 -2099 0
-1790 -2041 -2044 -2114 0
-1661 -1815 -1958 -2099 0
-1790 -2018 -2026 -2044 0
-1754 -1757 -1958 -2099 0
-1790 -1886 -2026 -2044 0
-1595 -1754 -1958 -2099 0
-1790 -1886 -1911 -2044 0
-1595 -1848 -1958 -2099 0
-1664 -1838 -2044 0
-1863 -1958 -1973 0
-1660 -1838 -2044 0
-1862 -1958 -1973 0
-1838 -1904 -2044 0
-1840 -1958 -1973 0
-1754 -1838 -2044 0
-1933 -1958 -1973 0
-1732 -1754 -1838 -1886 -2044 0
-1595 -1711 -1933 -1958 -1973 0
-1675 -1754 -1838 -2044 0
-1873 -1933 -1958 -1973 0
-1675 -1754 -1826 -1838 -1886 -2044 0
-1595 -1776 -1873 -1933 -1958 -1973 0
-1660 -1667 -1754 -1838 -2044 0
-1862 -1870 -1933 -1958 -1973 0
-1838 -1848 -2044 0
-1958 -1973 -1976 0
-1642 -1732 -1838 -1848 -2044 0
-1618 -1711 -1958 -1973 -1976 0
-1838 -1848 -1919 -2044 0
-1851 -1958 -1973 -1976 0
-1826 -1838 -1848 -1886 -2044 0
-1595 -1776 -1958 -1973 -1976 0
-1642 -1826 -1838 -1848 -2044 0
-1618 -1776 -1958 -1973 -1976 0
-1818 -1826 -1838 -1848 -2044 0
-1776 -1779 -1958 -1973 -1976 0
-1667 -1747 -1838 -1848 -1886 -2044 0
-1595 -1718 -1870 -1958 -1973 -1976 0
-1642 -1667 -1838 -1848 -2044 0
-1618 -1870 -1958 -1973 -1976 0
-1660 -1664 -1838 -1848 -2044 0
-1862 -1863 -1958 -1973 -1976 0
-1732 -1838 -1848 -1886 -2044 0
-1595 -1711 -1958 -1973 -1976 0
-1675 -1838 -1848 -2044 0
-1873 -1958 -1973 -1976 0
-1675 -1826 -1838 -1848 -1886 -2044 0
-1595 -1776 -1873 -1958 -1973 -1976 0
-1660 -1667 -1838 -1848 -2044 0
-1862 -1870 -1958 -1973 -1976 0
-1689 -1838 -2044 0
-1958 -1973 -2048 0
-1689 -1732 -1838 -1886 -2044 0
-1595 -1711 -1958 -1973 -2048 0
-1675 -1689 -1838 -2044 0
-1873 -1958 -1973 -2048 0
-1675 -1689 -1826 -1838 -1886 -2044 0
-1595 -1776 -1873 -1958 -1973 -2048 0
-1660 -1667 -1689 -1838 -2044 0
-1862 -1870 -1958 -1973 -2048 0
-1664 -1697 -1838 -2044 0
-1863 -1958 -1973 -2051 0
-1660 -1697 -1838 -2044 0
-1862 -1958 -1973 -2051 0
-1697 -1838 -1904 -2044 0
-1840 -1958 -1973 -2051 0
-1697 -1754 -1838 -2044 0
-1933 -1958 -1973 -2051 0
-1642 -1697 -1732 -1754 -1838 -2044 0
-1618 -1711 -1933 -1958 -1973 -2051 0
-1697 -1754 -1838 -1919 -2044 0
-1851 -1933 -1958 -1973 -2051 0
-1697 -1754 -1826 -1838 -1886 -2044 0
-1595 -1776 -1933 -1958 -1973 -2051 0
-1642 -1697 -1754 -1826 -1838 -2044 0
-1618 -1776 -1933 -1958 -1973 -2051 0
-1697 -1754 -1818 -1826 -1838 -2044 0
-1776 -1779 -1933 -1958 -1973 -2051 0
-1667 -1697 -1747 -1754 -1838 -1886 -2044 0
-1595 -1718 -1870 -1933 -1958 -1973 -2051 0
-1642 -1667 -1697 -1754 -1838 -2044 0
-1618 -1870 -1933 -1958 -1973 -2051 0
-1660 -1664 -1697 -1754 -1838 -2044 0
-1862 -1863 -1933 -1958 -1973 -2051 0
-1849 -1862 -1983 -2055 0
-1919 -1967 -1991 -2113 0
-1849 -1862 -1886 -1954 -1983 -2055 0
-1595 -1689 -1919 -1967 -1991 -2113 0
-1933 -2055 0
-1967 -2026 0
-1642 -1732 -1933 -2055 0
-1618 -1711 -1967 -2026 0
-1919 -1933 -2055 0
-1851 -1967 -2026 0
-1826 -1886 -1933 -2055 0
-1595 -1776 -1967 -2026 0
-1642 -1826 -1933 -2055 0
-1618 -1776 -1967 -2026 0
-1818 -1826 -1933 -2055 0
-1776 -1779 -1967 -2026 0
-1667 -1747 -1886 -1933 -2055 0
-1595 -1718 -1870 -1967 -2026 0
-1642 -1667 -1933 -2055 0
-1618 -1870 -1967 -2026 0
-1660 -1664 -1933 -2055 0
-1862 -1863 -1967 -2026 0
-1732 -1886 -1933 -2055 0
-1595 -1711 -1967 -2026 0
-1675 -1933 -2055 0
-1873 -1967 -2026 0
-1675 -1826 -1886 -1933 -2055 0
-1595 -1776 -1873 -1967 -2026 0
-1660 -1667 -1933 -2055 0
-1862 -1870 -1967 -2026 0
-1747 -1933 -2055 0
-1718 -1967 -2026 0
-1642 -1675 -1826 -1933 -2055 0
-1618 -1776 -1873 -1967 -2026 0
-1675 -1769 -1933 -2055 0
-1873 -1940 -1967 -2026 0
-1769 -1933 -2055 0
-1940 -1967 -2026 0
-1732 -1769 -1886 -1933 -2055 0
-1595 -1711 -1940 -1967 -2026 0
-1675 -1769 -1826 -1886 -1933 -2055 0
-1595 -1776 -1873 -1940 -1967 -2026 0
-1660 -1667 -1769 -1933 -2055 0
-1862 -1870 -1940 -1967 -2026 0
-1832 -1933 -2055 0
-1787 -1967 -2026 0
-1642 -1675 -1818 -1933 -2055 0
-1618 -1779 -1873 -1967 -2026 0
-1697 -1933 -2055 0
-1967 -2026 -2051 0
-1642 -1697 -1732 -1933 -2055 0
-1618 -1711 -1967 -2026 -2051 0
-1697 -1919 -1933 -2055 0
-1851 -1967 -2026 -2051 0
-1697 -1826 -1886 -1933 -2055 0
-1595 -1776 -1967 -2026 -2051 0
-1642 -1697 -1826 -1933 -2055 0
-1618 -1776 -1967 -2026 -2051 0
-1697 -1818 -1826 -1933 -2055 0
-1776 -1779 -1967 -2026 -2051 0
-1667 -1697 -1747 -1886 -1933 -2055 0
-1595 -1718 -1870 -1967 -2026 -2051 0
-1642 -1667 -1697 -1933 -2055 0
-1618 -1870 -1967 -2026 -2051 0
-1660 -1664 -1697 -1933 -2055 0
-1862 -1863 -1967 -2026 -2051 0
-1664 -1697 -1848 -1933 -2055 0
-1863 -1967 -1976 -2026 -2051 0
-1660 -1697 -1848 -1933 -2055 0
-1862 -1967 -1976 -2026 -2051 0
-1642 -1675 -1832 -1904 -1933 -2055 0
-1618 -1787 -1840 -1873 -1967 -2026 0
-1904 -1911 -1933 -2055 0
-1840 -1848 -1967 -2026 0
-1747 -1904 -1911 -1933 -2055 0
-1718 -1840 -1848 -1967 -2026 0
-1675 -1904 -1911 -1933 -2055 0
-1840 -1848 -1873 -1967 -2026 0
-1642 -1675 -1826 -1904 -1911 -1933 -2055 0
-1618 -1776 -1840 -1848 -1873 -1967 -2026 0
-1642 -1732 -1904 -1911 -1933 -2055 0
-1618 -1711 -1840 -1848 -1967 -2026 0
-1664 -1754 -1933 -2055 0
-1863 -1933 -1967 -2026 0
-1660 -1754 -1933 -2055 0
-1862 -1933 -1967 -2026 0
-1697 -1777 -1942 -2055 0
-1967 -2032 -2051 -2091 0
-1642 -1697 -1732 -1777 -1942 -2055 0
-1618 -1711 -1967 -2032 -2051 -2091 0
-1697 -1777 -1919 -1942 -2055 0
-1851 -1967 -2032 -2051 -2091 0
-1697 -1777 -1826 -1886 -1942 -2055 0
-1595 -1776 -1967 -2032 -2051 -2091 0
-1642 -1697 -1777 -1826 -1942 -2055 0
-1618 -1776 -1967 -2032 -2051 -2091 0
-1697 -1777 -1818 -1826 -1942 -2055 0
-1776 -1779 -1967 -2032 -2051 -2091 0
-1667 -1697 -1747 -1777 -1886 -1942 -2055 0
-1595 -1718 -1870 -1967 -2032 -2051 -2091 0
-1642 -1667 -1697 -1777 -1942 -2055 0
-1618 -1870 -1967 -2032 -2051 -2091 0
-1660 -1664 -1697 -1777 -1942 -2055 0
-1862 -1863 -1967 -2032 -2051 -2091 0
-1642 -1675 -1832 -2029 0
-1618 -1761 -1787 -1873 0
-1818 -1969 0
-1696 -1779 0
-1862 -1933 -2114 0
-1661 -2026 -2113 0
-1697 -1942 -2114 0
-1661 -2032 -2051 0
-1862 -1926 -2114 0
-1661 -2018 -2113 0
-1838 -1979 -2114 0
-1661 -1904 -1973 0
-1697 -1838 -1979 -2114 0
-1661 -1904 -1973 -2051 0
-1675 -2114 0
-1661 -1873 0
-1849 -2114 0
-1661 -1991 0
-1697 -1849 -2114 0
-1661 -1991 -2051 0
-1769 -2114 0
-1661 -1940 0
-1697 -1769 -2114 0
-1661 -1940 -2051 0
-1675 -1769 -2114 0
-1661 -1873 -1940 0
-1919 -2114 0
-1661 -1851 0
-1675 -1919 -2114 0
-1661 -1851 -1873 0
-1832 -1919 -2114 0
-1661 -1787 -1851 0
-1818 -1911 -2114 0
-1661 -1779 -1848 0
-1862 -1976 -2114 0
-1661 -1911 -2113 0
-1976 -1979 -2114 0
-1661 -1904 -1911 0
-1697 -1976 -1979 -2114 0
-1661 -1904 -1911 -2051 0
-1675 -1976 -1979 -2114 0
-1661 -1873 -1904 -1911 0
-1849 -1976 -1979 -2114 0
-1661 -1904 -1911 -1991 0
-1697 -1849 -1976 -1979 -2114 0
-1661 -1904 -1911 -1991 -2051 0
-1769 -1976 -1979 -2114 0
-1661 -1904 -1911 -1940 0
-1697 -1769 -1976 -1979 -2114 0
-1661 -1904 -1911 -1940 -2051 0
-1675 -1769 -1976 -1979 -2114 0
-1661 -1873 -1904 -1911 -1940 0
-2029 -2114 0
-1661 -1761 0
-1697 -2029 -2114 0
-1661 -1761 -2051 0
-1675 -2029 -2114 0
-1661 -1761 -1873 0
-1849 -2029 -2114 0
-1661 -1761 -1991 0
-1697 -1849 -2029 -2114 0
-1661 -1761 -1991 -2051 0
-1769 -2029 -2114 0
-1661 -1761 -1940 0
-1697 -1769 -2029 -2114 0
-1661 -1761 -1940 -2051 0
-1675 -1769 -2029 -2114 0
-1661 -1761 -1873 -1940 0
-1818 -1954 -2029 -2114 0
-1661 -1689 -1761 -1779 0
-1818 -1969 -2163 0
-1696 -1739 -1779 0
-1642 -1675 -1832 -2026 -2041 -2122 -2163 0
-1618 -1678 -1739 -1754 -1787 -1815 -1873 0
-1642 -1675 -1832 -2089 -2149 0
-1618 -1642 -1787 -1826 -1873 0
-1818 -1969 -2114 -2149 0
-1642 -1661 -1696 -1779 0
-1642 -1675 -1832 -2149 -2160 0
-1618 -1642 -1732 -1787 -1873 0
-1642 -1675 -1832 -2029 -2149 -2160 0
-1618 -1642 -1732 -1761 -1787 -1873 0
-1642 -1675 -1832 -2018 -2122 -2149 0
-1618 -1642 -1678 -1757 -1787 -1873 0
-1642 -1675 -1832 -2029 -2089 -2122 -2149 0
-1618 -1642 -1678 -1761 -1787 -1826 -1873 0
-1642 -1675 -1832 -2029 -2111 -2149 0
-1618 -1642 -1669 -1761 -1787 -1873 0
-1642 -1675 -1832 -2018 -2089 -2111 -2149 0
-1618 -1642 -1669 -1757 -1787 -1826 -1873 0
-1818 -1969 -2122 -2163 0
-1678 -1696 -1739 -1779 0
-1642 -1675 -1832 -2163 0
-1618 -1739 -1787 -1873 0
-1642 -1675 -1832 -2029 -2163 0
-1618 -1739 -1761 -1787 -1873 0
-1818 -1969 -2122 0
-1678 -1696 -1779 0
-1737 -1929 0
-1737 -1769 -1929 0
-1676 -1751 -1929 0
-1709 -1903 0
-1753 -2157 0
-1709 -1903 -1940 0
-1753 -2027 -2157 0
-1876 -1903 -1934 0
-1753 -2016 -2121 0
-1572 -1729 -1815 -1929 0
-1686 -1712 -1859 -1903 0
-1753 -2041 -2064 -2150 0
-1668 -1729 -1815 -1929 0
-1686 -1712 -1860 -1903 0
-1753 -2041 -2107 -2150 0
-1734 -1929 0
-1734 -1904 -1911 -1929 0
-1734 -1827 -1929 0
-1697 -1734 -1827 -1929 0
-1573 -1734 -1827 0
-1573 -1734 -1827 -1862 -1996 0
-1573 -1734 -1827 -1873 0
-1573 -1704 -1711 -1734 -1827 0
-1682 -1719 -1734 -1827 -1873 0
-1714 -1903 0
-1753 -2155 0
-1714 -1840 -1848 -1903 0
-1753 -1976 -1979 -2155 0
-1714 -1791 -1903 0
-1753 -2096 -2155 0
-1714 -1791 -1903 -2051 0
-1753 -1961 -2096 -2155 0
-1714 -1791 -1996 0
-1948 -2096 -2155 0
-1714 -1791 -1948 -1996 -2113 0
-1573 -1660 -1948 -2096 -2155 0
-1714 -1791 -1996 -2117 0
-1675 -1948 -2096 -2155 0
-1714 -1791 -1996 -2152 -2160 0
-1732 -1735 -1948 -2096 -2155 0
-1714 -1791 -2040 -2117 -2163 0
-1675 -1739 -1957 -2096 -2155 0
-1675 -1751 -1940 -1996 0
-1675 -1751 -1929 0
-1684 -1940 -1996 0
-1684 -1929 0
-1684 -1729 -1732 -1940 -1996 0
-1684 -1729 -1732 -1929 0
-1684 -1940 -1961 -1996 0
-1684 -1929 -1961 0
-1667 -1684 -1729 -1940 -1996 0
-1667 -1684 -1729 -1929 0
-1684 -1729 -1826 -1940 -1996 0
-1684 -1729 -1826 -1929 0
-1684 -1827 -1940 -1996 0
-1684 -1827 -1929 0
-1684 -1827 -1940 -1961 -1996 0
-1684 -1827 -1929 -1961 0
-1684 -1920 -1961 -2015 0
-1684 -1920 -1961 -2015 -2051 0
-1684 -1920 -1961 -1996 -2015 -2040 0
-1684 -1920 -1961 -2113 0
-1873 -1934 -1948 -2027 0
-1573 -1769 -2016 -2117 0
-1873 -1903 -1934 0
-1753 -2016 -2117 0
-1948 -2027 -2046 0
-1573 -1769 -1949 0
-1903 -2046 0
-1753 -1949 0
-1711 -1712 -1948 -2027 -2046 0
-1573 -1769 -1949 -2150 -2160 0
-1711 -1712 -1903 -2046 0
-1753 -1949 -2150 -2160 0
-1697 -1948 -2027 -2046 0
-1573 -1769 -1949 -2051 0
-1697 -1903 -2046 0
-1753 -1949 -2051 0
-1712 -1870 -1948 -2027 -2046 0
-1573 -1769 -1949 -2110 -2150 0
-1712 -1870 -1903 -2046 0
-1753 -1949 -2110 -2150 0
-1712 -1776 -1948 -2027 -2046 0
-1573 -1769 -1949 -2089 -2150 0
-1712 -1776 -1903 -2046 0
-1753 -1949 -2089 -2150 0
-1791 -1948 -2027 -2046 0
-1573 -1769 -1949 -2096 0
-1791 -1903 -2046 0
-1753 -1949 -2096 0
-1697 -1791 -1948 -2027 -2046 0
-1573 -1769 -1949 -2051 -2096 0
-1697 -1791 -1903 -2046 0
-1753 -1949 -2051 -2096 0
-1664 -1697 -1854 -2046 0
-1863 -1949 -1987 -2051 0
-1664 -1697 -1854 -1961 -2046 0
-1697 -1863 -1949 -1987 -2051 0
-1664 -1697 -1854 -1948 -1957 -2046 0
-1573 -1682 -1863 -1949 -1987 -2051 0
-1660 -1697 -1854 -2046 0
-1862 -1949 -1987 -2051 0
-1940 -1996 0
-1929 0
-1904 -1911 -1940 -1996 0
-1904 -1911 -1929 0
-1815 -1826 -1940 -1996 0
-1815 -1826 -1929 0
-1568 -1667 -1940 -1996 0
-1568 -1667 -1929 0
-1667 -1815 -1940 -1996 0
-1667 -1815 -1929 0
-1660 -1667 -1940 -1996 0
-1660 -1667 -1929 0
-1747 -1940 -1996 0
-1747 -1929 0
-1747 -1904 -1911 -1940 -1996 0
-1747 -1904 -1911 -1929 0
-1568 -1747 -1826 -1940 -1996 0
-1568 -1747 -1826 -1929 0
-1732 -1815 -1940 -1996 0
-1732 -1815 -1929 0
-1568 -1732 -1827 -1940 -1996 0
-1568 -1732 -1827 -1929 0
-1732 -1767 -1815 -1940 -1996 0
-1732 -1767 -1815 -1929 0
-1568 -1826 -1940 -1996 0
-1568 -1826 -1929 0
-1920 -1940 -1996 0
-1920 -1929 0
-1940 -1961 -1996 0
-1929 -1961 0
-1729 -1732 -1940 -1996 0
-1729 -1732 -1929 0
-1729 -1732 -1904 -1911 -1940 -1996 0
-1729 -1732 -1904 -1911 -1929 0
-1767 -1940 -1996 0
-1767 -1929 0
-1767 -1940 -1961 -1996 0
-1767 -1929 -1961 0
-1729 -1815 -1940 -1996 0
-1729 -1815 -1929 0
-1675 -1940 -1996 0
-1675 -1929 0
-1675 -1920 -1940 -1996 0
-1675 -1920 -1929 0
-1675 -1940 -1961 -1996 0
-1675 -1929 -1961 0
-1675 -1729 -1815 -1940 -1996 0
-1675 -1729 -1815 -1929 0
-1568 -1675 -1729 -1940 -1996 0
-1568 -1675 -1729 -1929 0
-1675 -1729 -1826 -1940 -1996 0
-1675 -1729 -1826 -1929 0
-1675 -1729 -1826 -1904 -1911 -1940 -1996 0
-1675 -1729 -1826 -1904 -1911 -1929 0
-1675 -1732 -1815 -1940 -1996 0
-1675 -1732 -1815 -1929 0
-1675 -1904 -1911 -1940 -1996 0
-1675 -1904 -1911 -1929 0
-1675 -1767 -1940 -1996 0
-1675 -1767 -1929 0
-1675 -1689 -1767 -1848 -1940 -1996 0
-1675 -1689 -1767 -1848 -1929 0
-1675 -1689 -1767 -1851 0
-1675 -1689 -1767 -1851 -1876 0
-1675 -1689 -1767 -1851 -1863 -1996 0
-1667 -1729 -1940 -1996 0
-1667 -1729 -1929 0
-1729 -1826 -1940 -1996 0
-1729 -1826 -1929 0
-1827 -1940 -1996 0
-1827 -1929 0
-1827 -1940 -1961 -1996 0
-1827 -1929 -1961 0
-1920 -1961 -2015 0
-1920 -1961 -2015 -2051 0
-1920 -1961 -1996 -2015 -2040 0
-1920 -1961 -2113 0
-1996 0
-1996 -2117 0
-1996 -2015 -2089 -2117 0
-1996 -2096 0
-1996 -2096 -2117 0
-1996 -2015 -2160 0
-1996 -2161 0
-1996 -2117 -2161 0
-2051 -2090 0
-2051 -2090 -2117 0
-1863 -1904 -2090 0
-1729 -1732 -1767 -1940 -1996 0
-1729 -1732 -1767 -1929 0
-1753 -1986 0
-1753 -1986 -2117 0
-1753 0
-1753 -2051 0
-1753 -1996 -2040 0
-1753 -2149 -2160 0
-1753 -1908 -1940 -1996 0
-1753 -1908 -1929 0
-1753 -1940 -1986 -2051 0
-1753 -2089 -2149 0
-1753 -2096 0
-1753 -2051 -2096 0
-1753 -1996 -2090 0
-1753 -2110 -2149 0
-1753 -2015 -2113 0
-1753 -2117 0
-1753 -2110 -2113 0
-1753 -2161 0
-1753 -2089 -2117 -2149 0
-1753 -1904 -1940 -1996 0
-1753 -1904 -1929 0
-1753 -2027 0
-1753 -2027 -2117 0
-1753 -2027 -2110 -2113 0
-1753 -2051 -2117 0
-1753 -1996 -2040 -2117 0
-1753 -1961 0
-1753 -1961 -2051 0
-1753 -1961 -1996 -2040 0
-1753 -1961 -2149 -2160 0
-1753 -1908 -1940 -1961 -1996 0
-1753 -1908 -1929 -1961 0
-1753 -1940 -1961 -1986 -2051 0
-1753 -1961 -2089 -2149 0
-1753 -1961 -2096 0
-1753 -1961 -2051 -2096 0
-1753 -1961 -1996 -2090 0
-1753 -1961 -2110 -2149 0
-1753 -1961 -2015 -2113 0
-1753 -1911 -1961 -2015 0
-1753 -1911 -1961 -2015 -2051 0
-1753 -1911 -1961 -1996 -2015 -2040 0
-1753 -1911 -1961 -2113 0
-1753 -2015 -2026 0
-1753 -2015 -2026 -2051 0
-1753 -1996 -2015 -2026 -2040 0
-1753 -2026 -2113 0
-1776 -1779 -1996 0
-1776 -1779 -1996 -2117 0
-1776 -1779 -1996 -2015 -2089 -2117 0
-1776 -1779 -1996 -2096 0
-1776 -1779 -1996 -2096 -2117 0
-1776 -1779 -1996 -2015 -2160 0
-1776 -1779 -1996 -2161 0
-1776 -1779 -1996 -2117 -2161 0
-1776 -1779 -2051 -2090 0
-1776 -1779 -2051 -2090 -2117 0
-1851 -1996 0
-1851 -1996 -2117 0
-1851 -1996 -2015 -2089 -2117 0
-1851 -1996 -2096 0
-1851 -1996 -2096 -2117 0
-1851 -1996 -2015 -2160 0
-1851 -1996 -2161 0
-1851 -1996 -2117 -2161 0
-1851 -2051 -2090 0
-1851 -2051 -2090 -2117 0
-1827 -1851 -1904 -1961 0
-1827 -1851 -1904 -1961 -2051 0
-1815 -1851 -1920 -1961 0
-1815 -1851 -1920 -1961 -2051 0
-1840 -1986 0
-1840 -1986 -2117 0
-1827 -1840 -1904 -1940 -1961 -1996 0
-1827 -1840 -1904 -1929 -1961 0
-1815 -1840 -1920 -1940 -1961 -1996 0
-1815 -1840 -1920 -1929 -1961 0
-1698 -1920 -1961 -2015 0
-1698 -1920 -1961 -2015 -2051 0
-1698 -1920 -1961 -1996 -2015 -2040 0
-1698 -1920 -1961 -2113 0
-1698 -1940 -1996 0
-1698 -1729 -1732 -1940 -1996 0
-1698 -1940 -1961 -1996 0
-1667 -1698 -1729 -1940 -1996 0
-1698 -1729 -1826 -1940 -1996 0
-1698 -1827 -1940 -1996 0
-1698 -1827 -1940 -1961 -1996 0
-1698 -1929 0
-1698 -1729 -1732 -1929 0
-1698 -1929 -1961 0
-1667 -1698 -1729 -1929 0
-1698 -1729 -1826 -1929 0
-1698 -1827 -1929 0
-1698 -1827 -1929 -1961 0
-1698 -1787 -1863 -1876 0
-1698 -1729 -1732 -1787 -1863 -1876 0
-1698 -1787 -1863 -1876 -1961 0
-1667 -1698 -1729 -1787 -1863 -1876 0
-1698 -1729 -1787 -1826 -1863 -1876 0
-1698 -1787 -1827 -1863 -1876 0
-1698 -1787 -1827 -1863 -1876 -1961 0
-1698 -1779 -1876 -1940 0
-1698 -1729 -1732 -1779 -1876 -1940 0
-1698 -1779 -1876 -1940 -1961 0
-1667 -1698 -1729 -1779 -1876 -1940 0
-1698 -1729 -1779 -1826 -1876 -1940 0
-1698 -1779 -1827 -1876 -1940 0
-1698 -1779 -1827 -1876 -1940 -1961 0
-1698 -1996 0
-1698 -1996 -2117 0
-1698 -1996 -2015 -2089 -2117 0
-1698 -1996 -2096 0
-1698 -1996 -2096 -2117 0
-1698 -1996 -2015 -2160 0
-1698 -1996 -2161 0
-1698 -1996 -2117 -2161 0
-1698 -2051 -2090 0
-1698 -2051 -2090 -2117 0
-1698 -1863 -1904 -2090 0
-1660 -1698 -1848 -1940 -1996 0
-1660 -1698 -1848 -1929 0
-1660 -1698 -1851 0
-1660 -1698 -1851 -1876 0
-1660 -1698 -1851 -1863 -1996 0
-1767 -1848 0
-1729 -1732 -1767 -1848 0
-1933 -1986 0
-1933 -1986 -2117 0
-1862 -1904 -2090 0
-1767 -1848 -1862 -1996 0
-1729 -1732 -1767 -1848 -1862 -1996 0
-1862 -1863 -1996 0
-1862 -1863 -1996 -2117 0
-1862 -1863 -1996 -2015 -2089 -2117 0
-1862 -1863 -1996 -2096 0
-1862 -1863 -1996 -2096 -2117 0
-1862 -1863 -1996 -2015 -2160 0
-1862 -1863 -1996 -2161 0
-1862 -1863 -1996 -2117 -2161 0
-1862 -1863 -2051 -2090 0
-1862 -1863 -2051 -2090 -2117 0
-1876 -1933 -1986 0
-1876 -1933 -1986 -2117 0
-1767 -1848 -1876 0
-1729 -1732 -1767 -1848 -1876 0
-1719 -1933 -1986 0
-1719 -1933 -1986 -2117 0
-1682 -1719 -1876 0
-1682 -1719 -1729 -1732 -1876 0
-1682 -1719 -1876 -1961 0
-1667 -1682 -1719 -1729 -1876 0
-1682 -1719 -1729 -1826 -1876 0
-1682 -1719 -1827 -1876 0
-1682 -1719 -1827 -1876 -1961 0
-1719 -1767 -1848 0
-1719 -1729 -1732 -1767 -1848 0
-1719 -1996 0
-1719 -1996 -2117 0
-1719 -1996 -2015 -2089 -2117 0
-1719 -1996 -2096 0
-1719 -1996 -2096 -2117 0
-1719 -1996 -2015 -2160 0
-1719 -1996 -2161 0
-1719 -1996 -2117 -2161 0
-1719 -2051 -2090 0
-1719 -2051 -2090 -2117 0
-1862 -1870 -1933 -1986 0
-1862 -1870 -1933 -1986 -2117 0
-1948 -2027 0
-1573 -1769 0
-1903 0
-1840 -1848 -1948 -2027 0
-1573 -1769 -1976 -1979 0
-1840 -1848 -1903 0
-1753 -1976 -1979 0
-1686 -1776 -1948 -2027 0
-1573 -1769 -2041 -2089 0
-1686 -1776 -1903 0
-1753 -2041 -2089 0
-1870 -1930 -1948 -2027 0
-1573 -1769 -2019 -2110 0
-1870 -1903 -1930 0
-1753 -2019 -2110 0
-1686 -1870 -1948 -2027 0
-1573 -1769 -2041 -2110 0
-1686 -1870 -1903 0
-1753 -2041 -2110 0
-1862 -1870 -1948 -2027 0
-1573 -1769 -2110 -2113 0
-1862 -1870 -1903 0
-1718 -1948 -2027 0
-1573 -1769 -2161 0
-1718 -1903 0
-1718 -1840 -1848 -1948 -2027 0
-1573 -1769 -1976 -1979 -2161 0
-1718 -1840 -1848 -1903 0
-1753 -1976 -1979 -2161 0
-1718 -1776 -1930 -1948 -2027 0
-1573 -1769 -2019 -2089 -2161 0
-1718 -1776 -1903 -1930 0
-1753 -2019 -2089 -2161 0
-1686 -1711 -1948 -2027 0
-1573 -1769 -2041 -2160 0
-1686 -1711 -1903 0
-1753 -2041 -2160 0
-1711 -1791 -1930 -1948 -2027 0
-1573 -1769 -2019 -2096 -2160 0
-1711 -1791 -1903 -1930 0
-1753 -2019 -2096 -2160 0
-1686 -1711 -1945 -1948 -2027 0
-1573 -1769 -2033 -2041 -2160 0
-1686 -1711 -1903 -1945 0
-1753 -2033 -2041 -2160 0
-1776 -1930 -1948 -2027 0
-1573 -1769 -2019 -2089 0
-1776 -1903 -1930 0
-1753 -2019 -2089 0
-1854 -1948 -2027 0
-1573 -1769 -1987 0
-1854 -1903 0
-1753 -1987 0
-1697 -1948 -2027 0
-1573 -1769 -2051 0
-1697 -1903 0
-1711 -1712 -1948 -2027 0
-1573 -1769 -2150 -2160 0
-1711 -1712 -1903 0
-1753 -2150 -2160 0
-1711 -1712 -1840 -1848 -1948 -2027 0
-1573 -1769 -1976 -1979 -2150 -2160 0
-1711 -1712 -1840 -1848 -1903 0
-1753 -1976 -1979 -2150 -2160 0
-1945 -1948 -2027 0
-1573 -1769 -2033 0
-1903 -1945 0
-1753 -2033 0
-1697 -1945 -1948 -2027 0
-1573 -1769 -2033 -2051 0
-1697 -1903 -1945 0
-1753 -2033 -2051 0
-1686 -1712 -1948 -2027 0
-1573 -1769 -2041 -2150 0
-1686 -1712 -1903 0
-1753 -2041 -2150 0
-1873 -1948 -2027 0
-1573 -1769 -2117 0
-1873 -1903 0
-1854 -1873 -1948 -2027 0
-1573 -1769 -1987 -2117 0
-1854 -1873 -1903 0
-1753 -1987 -2117 0
-1697 -1873 -1948 -2027 0
-1573 -1769 -2051 -2117 0
-1697 -1873 -1903 0
-1686 -1712 -1873 -1948 -2027 0
-1573 -1769 -2041 -2117 -2150 0
-1686 -1712 -1873 -1903 0
-1753 -2041 -2117 -2150 0
-1712 -1873 -1930 -1948 -2027 0
-1573 -1769 -2019 -2117 -2150 0
-1712 -1873 -1903 -1930 0
-1753 -2019 -2117 -2150 0
-1712 -1776 -1873 -1948 -2027 0
-1573 -1769 -2089 -2117 -2150 0
-1712 -1776 -1873 -1903 0
-1753 -2089 -2117 -2150 0
-1712 -1776 -1840 -1848 -1873 -1948 -2027 0
-1573 -1769 -1976 -1979 -2089 -2117 -2150 0
-1712 -1776 -1840 -1848 -1873 -1903 0
-1753 -1976 -1979 -2089 -2117 -2150 0
-1686 -1711 -1873 -1948 -2027 0
-1573 -1769 -2041 -2117 -2160 0
-1686 -1711 -1873 -1903 0
-1753 -2041 -2117 -2160 0
-1840 -1848 -1873 -1948 -2027 0
-1573 -1769 -1976 -1979 -2117 0
-1840 -1848 -1873 -1903 0
-1753 -1976 -1979 -2117 0
-1873 -1945 -1948 -2027 0
-1573 -1769 -2033 -2117 0
-1873 -1903 -1945 0
-1753 -2033 -2117 0
-1873 -1945 -1948 -1976 -2027 -2048 0
-1573 -1769 -1911 -1954 -2033 -2117 0
-1873 -1903 -1945 -1976 -2048 0
-1753 -1911 -1954 -2033 -2117 0
-1873 -1945 -1983 -2048 0
-1919 -1954 -2033 -2117 0
-1873 -1945 -1983 -2048 -2121 0
-1676 -1919 -1954 -2033 -2117 0
-1873 -1945 -1948 -1983 -2015 -2048 0
-1573 -1664 -1919 -1954 -2033 -2117 0
-1712 -1870 -1948 -2027 0
-1573 -1769 -2110 -2150 0
-1712 -1870 -1903 0
-1753 -2110 -2150 0
-1712 -1776 -1948 -2027 0
-1573 -1769 -2089 -2150 0
-1712 -1776 -1903 0
-1753 -2089 -2150 0
-1791 -1948 -2027 0
-1573 -1769 -2096 0
-1791 -1903 0
-1697 -1791 -1948 -2027 0
-1573 -1769 -2051 -2096 0
-1697 -1791 -1903 0
-1664 -1697 -1854 0
-1863 -1987 -2051 0
-1664 -1697 -1854 -1961 0
-1697 -1863 -1987 -2051 0
-1664 -1697 -1854 -1948 -1957 0
-1573 -1682 -1863 -1987 -2051 0
-1660 -1697 -1854 0
-1862 -1987 -2051 0
-1948 0
-1573 0
-1675 -1948 0
-1573 -1873 0
-1664 -1675 -1826 -1948 0
-1573 -1776 -1863 -1873 0
-1827 -1948 0
-1573 -1791 0
-1675 -1827 -1948 0
-1573 -1791 -1873 0
-1664 -1732 -1948 0
-1573 -1711 -1863 0
-1747 -1948 0
-1573 -1718 0
-1675 -1747 -1948 0
-1573 -1718 -1873 0
-1816 -1961 0
-1697 -1773 0
-1675 -1816 -1961 0
-1697 -1773 -1873 0
-1816 -1840 -2015 0
-1664 -1773 -1979 0
-1711 -1712 -1945 -1948 -2027 0
-1573 -1769 -2033 -2150 -2160 0
-1711 -1712 -1903 -1945 0
-1753 -2033 -2150 -2160 0
-1917 -1929 0
-1850 -1903 0
-1675 -1917 -1929 0
-1850 -1873 -1903 0
-1929 -1948 -1957 0
-1573 -1682 -1903 0
-1642 -1732 -1929 0
-1618 -1711 -1903 0
-1841 -1929 -1948 -2027 0
-1573 -1769 -1837 -1903 0
-1841 -1903 -1929 0
-1753 -1837 -1903 0
-1917 -1929 -1961 -2027 0
-1697 -1769 -1850 -1903 0
-1642 -1826 -1929 0
-1618 -1776 -1903 0
-1816 -1929 -1948 0
-1573 -1773 -1903 0
-1642 -1667 -1929 0
-1618 -1870 -1903 0
-1660 -1664 -1929 0
-1862 -1863 -1903 0
-1642 -1675 -1826 -1929 0
-1618 -1776 -1873 -1903 0
-1840 -1929 -1948 -2027 0
-1573 -1769 -1903 -1979 0
-1840 -1903 -1929 0
-1753 -1903 -1979 0
-1769 -1929 0
-1903 -1940 0
-1675 -1769 -1929 0
-1873 -1903 -1940 0
-1660 -1667 -1769 -1929 0
-1862 -1870 -1903 -1940 0
-1675 -1929 -1948 -1957 0
-1573 -1682 -1873 -1903 0
-1697 -1929 0
-1903 -2051 0
-1697 -1929 -1961 0
-1697 -1903 -2051 0
-1697 -1929 -1948 -1957 0
-1573 -1682 -1903 -2051 0
-1642 -1697 -1732 -1929 0
-1618 -1711 -1903 -2051 0
-1697 -1841 -1929 -1948 -2027 0
-1573 -1769 -1837 -1903 -2051 0
-1697 -1841 -1903 -1929 0
-1753 -1837 -1903 -2051 0
-1697 -1917 -1929 -1961 -2027 0
-1697 -1769 -1850 -1903 -2051 0
-1642 -1697 -1826 -1929 0
-1618 -1776 -1903 -2051 0
-1697 -1827 -1929 0
-1791 -1903 -2051 0
-1697 -1827 -1929 -1961 0
-1697 -1791 -1903 -2051 0
-1697 -1816 -1929 -1948 0
-1573 -1773 -1903 -2051 0
-1642 -1667 -1697 -1929 0
-1618 -1870 -1903 -2051 0
-1660 -1664 -1697 -1929 0
-1862 -1863 -1903 -2051 0
-1664 -1697 -1848 -1929 0
-1863 -1903 -1976 -2051 0
-1664 -1697 -1848 -1929 -1961 0
-1697 -1863 -1903 -1976 -2051 0
-1664 -1697 -1848 -1929 -1948 -1957 0
-1573 -1682 -1863 -1903 -1976 -2051 0
-1660 -1697 -1848 -1929 0
-1862 -1903 -1976 -2051 0
-1664 -1754 -1929 0
-1863 -1903 -1933 0
-1664 -1754 -1929 -1961 0
-1697 -1863 -1903 -1933 0
-1664 -1754 -1929 -1948 -1957 0
-1573 -1682 -1863 -1903 -1933 0
-1660 -1754 -1929 0
-1862 -1903 -1933 0
-1948 -2082 -2089 0
-1573 -1818 -1826 0
-1675 -1948 -2082 -2089 0
-1573 -1818 -1826 -1873 0
-1664 -1675 -1826 -1948 -2082 -2089 0
-1573 -1776 -1818 -1826 -1863 -1873 0
-1827 -1948 -2082 -2089 0
-1573 -1791 -1818 -1826 0
-1675 -1827 -1948 -2082 -2089 0
-1573 -1791 -1818 -1826 -1873 0
-1664 -1732 -1948 -2082 -2089 0
-1573 -1711 -1818 -1826 -1863 0
-1747 -1948 -2082 -2089 0
-1573 -1718 -1818 -1826 0
-1675 -1747 -1948 -2082 -2089 0
-1573 -1718 -1818 -1826 -1873 0
-1816 -1961 -2082 -2089 0
-1697 -1773 -1818 -1826 0
-1675 -1816 -1961 -2082 -2089 0
-1697 -1773 -1818 -1826 -1873 0
-1948 -1983 0
-1573 -1919 0
-1675 -1948 -1983 0
-1573 -1873 -1919 0
-1664 -1675 -1826 -1948 -1983 0
-1573 -1776 -1863 -1873 -1919 0
-1827 -1948 -1983 0
-1573 -1791 -1919 0
-1675 -1827 -1948 -1983 0
-1573 -1791 -1873 -1919 0
-1664 -1732 -1948 -1983 0
-1573 -1711 -1863 -1919 0
-1747 -1948 -1983 0
-1573 -1718 -1919 0
-1675 -1747 -1948 -1983 0
-1573 -1718 -1873 -1919 0
-1816 -1961 -1983 0
-1697 -1773 -1919 0
-1675 -1816 -1961 -1983 0
-1697 -1773 -1873 -1919 0
-1697 -1791 -1840 -1983 0
-1919 -1979 -2051 -2096 0
-1697 -1791 -1840 -1961 -1983 0
-1697 -1919 -1979 -2051 -2096 0
-1686 -1697 -1854 -1983 0
-1919 -1987 -2041 -2051 0
-1686 -1697 -1854 -1961 -1983 0
-1697 -1919 -1987 -2041 -2051 0
-1917 -1979 0
-1850 -1904 0
-1675 -1917 -1979 0
-1850 -1873 -1904 0
-1697 -1791 -1840 -1948 -1979 -2027 0
-1573 -1769 -1904 -1979 -2051 -2096 0
-1697 -1791 -1840 -1903 -1979 0
-1753 -1904 -1979 -2051 -2096 0
-1686 -1697 -1854 -1948 -1979 -2027 0
-1573 -1769 -1904 -1987 -2041 -2051 0
-1686 -1697 -1854 -1903 -1979 0
-1753 -1904 -1987 -2041 -2051 0
-1664 -1697 -1854 -2054 0
-1863 -1965 -1987 -2051 0
-1664 -1697 -1854 -1961 -2054 0
-1697 -1863 -1965 -1987 -2051 0
-1664 -1697 -1854 -1948 -1957 -2054 0
-1573 -1682 -1863 -1965 -1987 -2051 0
-1660 -1697 -1854 -2054 0
-1862 -1965 -1987 -2051 0
-1948 -2027 -2054 0
-1573 -1769 -1965 0
-1711 -1712 -1948 -2027 -2054 0
-1573 -1769 -1965 -2150 -2160 0
-1697 -1948 -2027 -2054 0
-1573 -1769 -1965 -2051 0
-1712 -1870 -1948 -2027 -2054 0
-1573 -1769 -1965 -2110 -2150 0
-1712 -1776 -1948 -2027 -2054 0
-1573 -1769 -1965 -2089 -2150 0
-1791 -1948 -2027 -2054 0
-1573 -1769 -1965 -2096 0
-1697 -1791 -1948 -2027 -2054 0
-1573 -1769 -1965 -2051 -2096 0
-1903 -2054 0
-1753 -1965 0
-1711 -1712 -1903 -2054 0
-1753 -1965 -2150 -2160 0
-1697 -1903 -2054 0
-1753 -1965 -2051 0
-1712 -1870 -1903 -2054 0
-1753 -1965 -2110 -2150 0
-1712 -1776 -1903 -2054 0
-1753 -1965 -2089 -2150 0
-1791 -1903 -2054 0
-1753 -1965 -2096 0
-1697 -1791 -1903 -2054 0
-1753 -1965 -2051 -2096 0
-2015 -2054 -2098 -2121 0
-1664 -1676 -1832 -1965 0
-1711 -1712 -2015 -2054 -2098 -2121 0
-1664 -1676 -1832 -1965 -2150 -2160 0
-1697 -2015 -2054 -2098 -2121 0
-1664 -1676 -1832 -1965 -2051 0
-1712 -1870 -2015 -2054 -2098 -2121 0
-1664 -1676 -1832 -1965 -2110 -2150 0
-1712 -1776 -2015 -2054 -2098 -2121 0
-1664 -1676 -1832 -1965 -2089 -2150 0
-1791 -2015 -2054 -2098 -2121 0
-1664 -1676 -1832 -1965 -2096 0
-1697 -1791 -2015 -2054 -2098 -2121 0
-1664 -1676 -1832 -1965 -2051 -2096 0
-2027 -2054 -2082 -2121 0
-1676 -1769 -1818 -1965 0
-1711 -1712 -2027 -2054 -2082 -2121 0
-1676 -1769 -1818 -1965 -2150 -2160 0
-1697 -2027 -2054 -2082 -2121 0
-1676 -1769 -1818 -1965 -2051 0
-1712 -1870 -2027 -2054 -2082 -2121 0
-1676 -1769 -1818 -1965 -2110 -2150 0
-1712 -1776 -2027 -2054 -2082 -2121 0
-1676 -1769 -1818 -1965 -2089 -2150 0
-1791 -2027 -2054 -2082 -2121 0
-1676 -1769 -1818 -1965 -2096 0
-1697 -1791 -2027 -2054 -2082 -2121 0
-1676 -1769 -1818 -1965 -2051 -2096 0
-1948 -2054 0
-1573 -1965 0
-1675 -1948 -2054 0
-1573 -1873 -1965 0
-1664 -1675 -1826 -1948 -2054 0
-1573 -1776 -1863 -1873 -1965 0
-1827 -1948 -2054 0
-1573 -1791 -1965 0
-1675 -1827 -1948 -2054 0
-1573 -1791 -1873 -1965 0
-1664 -1732 -1948 -2054 0
-1573 -1711 -1863 -1965 0
-1747 -1948 -2054 0
-1573 -1718 -1965 0
-1675 -1747 -1948 -2054 0
-1573 -1718 -1873 -1965 0
-1816 -1961 -2054 0
-1697 -1773 -1965 0
-1675 -1816 -1961 -2054 0
-1697 -1773 -1873 -1965 0
-1816 -1840 -2015 -2054 0
-1664 -1773 -1965 -1979 0
-1862 -1948 -1976 -2027 -2054 0
-1573 -1769 -1911 -1965 -2113 0
-1862 -1903 -1976 -2054 0
-1753 -1911 -1965 -2113 0
-1862 -1983 -2054 0
-1919 -1965 -2113 0
-1862 -1983 -2054 -2121 0
-1676 -1919 -1965 -2113 0
-1862 -1948 -1983 -2015 -2054 0
-1573 -1664 -1919 -1965 -2113 0
-1945 -1976 0
-1911 -2033 0
-1711 -1712 -1945 -1976 0
-1911 -2033 -2150 -2160 0
-1917 -2026 0
-1754 -1850 0
-1675 -1917 -2026 0
-1754 -1850 -1873 0
-1816 -1840 -2113 0
-1660 -1773 -1979 0
-1945 -1948 -1976 -2113 0
-1573 -1660 -1911 -2033 0
-1711 -1712 -1945 -1948 -1976 -2113 0
-1573 -1660 -1911 -2033 -2150 -2160 0
-1948 -2015 -2113 0
-1573 -1660 -1664 0
-1675 -1948 -2015 -2113 0
-1573 -1660 -1664 -1873 0
-1664 -1675 -1826 -1948 -2015 -2113 0
-1573 -1660 -1664 -1776 -1863 -1873 0
-1827 -1948 -2015 -2113 0
-1573 -1660 -1664 -1791 0
-1675 -1827 -1948 -2015 -2113 0
-1573 -1660 -1664 -1791 -1873 0
-1664 -1732 -1948 -2015 -2113 0
-1573 -1660 -1664 -1711 -1863 0
-1747 -1948 -2015 -2113 0
-1573 -1660 -1664 -1718 0
-1675 -1747 -1948 -2015 -2113 0
-1573 -1660 -1664 -1718 -1873 0
-1816 -1961 -2015 -2113 0
-1660 -1664 -1697 -1773 0
-1675 -1816 -1961 -2015 -2113 0
-1660 -1664 -1697 -1773 -1873 0
-1917 -2026 -2121 0
-1676 -1754 -1850 0
-1675 -1917 -2026 -2121 0
-1676 -1754 -1850 -1873 0
-1945 -1976 -2121 0
-1676 -1911 -2033 0
-1711 -1712 -1945 -1976 -2121 0
-1676 -1911 -2033 -2150 -2160 0
-1917 -2026 -2163 0
-1739 -1754 -1850 0
-1675 -1917 -2026 -2163 0
-1739 -1754 -1850 -1873 0
-2040 -2121 -2163 0
-1676 -1739 -1957 0
-1711 -1712 -2040 -2121 -2163 0
-1676 -1739 -1957 -2150 -2160 0
-1697 -2040 -2121 -2163 0
-1676 -1739 -1957 -2051 0
-1712 -1870 -2040 -2121 -2163 0
-1676 -1739 -1957 -2110 -2150 0
-1712 -1776 -2040 -2121 -2163 0
-1676 -1739 -1957 -2089 -2150 0
-1791 -2040 -2121 -2163 0
-1676 -1739 -1957 -2096 0
-1697 -1791 -2040 -2121 -2163 0
-1676 -1739 -1957 -2051 -2096 0
-1945 -1976 -2163 0
-1739 -1911 -2033 0
-1711 -1712 -1945 -1976 -2163 0
-1739 -1911 -2033 -2150 -2160 0
-1948 -2163 0
-1573 -1739 0
-1675 -1948 -2163 0
-1573 -1739 -1873 0
-1664 -1675 -1826 -1948 -2163 0
-1573 -1739 -1776 -1863 -1873 0
-1827 -1948 -2163 0
-1573 -1739 -1791 0
-1675 -1827 -1948 -2163 0
-1573 -1739 -1791 -1873 0
-1664 -1732 -1948 -2163 0
-1573 -1711 -1739 -1863 0
-1747 -1948 -2163 0
-1573 -1718 -1739 0
-1675 -1747 -1948 -2163 0
-1573 -1718 -1739 -1873 0
-1816 -1961 -2163 0
-1697 -1739 -1773 0
-1675 -1816 -1961 -2163 0
-1697 -1739 -1773 -1873 0
-1917 -2026 -2110 -2113 0
-1660 -1667 -1754 -1850 0
-1675 -1917 -2026 -2110 -2113 0
-1660 -1667 -1754 -1850 -1873 0
-1867 -2115 0
-1867 -1983 -2115 0
-1863 -1983 -2051 -2115 0
-1854 -1867 -2115 0
-1698 -1867 -2115 0
-1698 -1867 -1983 -2115 0
-1698 -1863 -1983 -2051 -2115 0
-1862 -1983 -2051 -2115 0
-1665 -2115 0
-1665 -1867 0
-1665 -1919 -2115 0
-1665 -1851 -1867 0
-1665 -1919 -1961 -2015 0
-1664 -1697 -1851 -1867 0
-1665 -1987 -2115 0
-1665 -1867 -1920 0
-1665 -2054 -2115 0
-1665 -1867 -1965 0
-1665 -1919 -2054 -2115 0
-1665 -1851 -1867 -1965 0
-1665 -1919 -1961 -2015 -2054 0
-1664 -1697 -1851 -1867 -1965 0
-1665 -1919 -1961 -2113 0
-1660 -1697 -1851 -1867 0
-1867 0
-1854 -1867 0
-1689 -1841 -1867 0
-1769 -1867 0
-1754 -1841 -1854 -1867 0
-1867 -1918 0
-1854 -1867 -1918 0
-1815 -1826 -1867 0
-1667 -1815 -1867 0
-1660 -1667 -1867 0
-1660 -1667 -1854 -1867 0
-1660 -1667 -1689 -1841 -1867 0
-1660 -1667 -1769 -1867 0
-1660 -1667 -1754 -1841 -1854 -1867 0
-1747 -1867 0
-1747 -1867 -1918 0
-1747 -1854 -1867 -1918 0
-1732 -1815 -1867 0
-1747 -2112 0
-1747 -1954 -1957 -2112 0
-2112 0
-1954 -1957 -2112 0
-1769 -2112 0
-1769 -2041 -2107 -2149 0
-2041 -2107 -2149 0
-1841 -2026 -2112 0
-1827 -2112 0
-1827 -1954 -1957 -2112 0
-1841 -1911 -2112 0
-1908 -1954 -2112 0
-1867 -1954 -2107 0
-1841 -1954 -2112 0
-1867 -1961 0
-1841 -1961 -2029 0
-1841 -1961 -2029 -2051 0
-1729 -1732 -1867 0
-1729 -1732 -1867 -1918 0
-1729 -1732 -1854 -1867 -1918 0
-1729 -1815 -1867 0
-1664 -1732 -2112 0
-1664 -1732 -1954 -1957 -2112 0
-1675 -2112 0
-1675 -2041 -2107 -2149 0
-1675 -1867 0
-1675 -1841 -2026 -2112 0
-1675 -1827 -2112 0
-1675 -1827 -1954 -1957 -2112 0
-1675 -1841 -1911 -2112 0
-1675 -1908 -1954 -2112 0
-1675 -1841 -1954 -2112 0
-1675 -1867 -1954 -2107 0
-1675 -1867 -1961 0
-1675 -1841 -1961 -2029 0
-1675 -1841 -1961 -2029 -2051 0
-1675 -1729 -1815 -1867 0
-1675 -1747 -2112 0
-1675 -1747 -1954 -1957 -2112 0
-1675 -1732 -1815 -1867 0
-1675 -1729 -1826 -1867 0
-1675 -1729 -1826 -1867 -1918 0
-1675 -1729 -1826 -1854 -1867 -1918 0
-1675 -1867 -1918 0
-1675 -1854 -1867 -1918 0
-1675 -1954 -1957 -2112 0
-1675 -1769 -2112 0
-1675 -1769 -2041 -2107 -2149 0
-1675 -1854 -1867 0
-1675 -1689 -1841 -1867 0
-1675 -1769 -1867 0
-1675 -1754 -1841 -1854 -1867 0
-1664 -1675 -1826 -2112 0
-1664 -1675 -1826 -1954 -1957 -2112 0
-1667 -1729 -1867 0
-1660 -1664 -1867 0
-1729 -1826 -1867 0
-1827 -1867 0
-1827 -1867 -1961 0
-1841 -1933 -2112 -2161 0
-1841 -1908 -2041 -2107 -2149 0
-1841 -1976 -2051 -2112 -2161 0
-2112 -2161 0
-2051 -2112 -2161 0
-2040 -2107 -2149 0
-1867 -2121 0
-1815 -1867 -1911 -1961 0
-1867 -1918 -1954 -2107 0
-1867 -1918 -1961 0
-1815 -1867 -2026 0
-1867 -2026 -2107 0
-1867 -2018 -2026 0
-1867 -2041 -2112 -2161 0
-1867 -1983 0
-1867 -1983 -2121 0
-1863 -1983 -2051 0
-1863 -1983 -2051 -2121 0
-1867 -1976 -2112 -2161 0
-1660 -1754 -1867 0
-1664 -1754 -1867 0
-1664 -1754 -1867 -1954 -2107 0
-1664 -1754 -1867 -1961 0
-1664 -1754 -1908 -1954 -2112 0
-1776 -1779 -2112 -2161 0
-1776 -1779 -2051 -2112 -2161 0
-1776 -1779 -2040 -2107 -2149 0
-1854 -1867 -1961 0
-1854 -1867 -2121 0
-1815 -1854 -1867 -1911 -1961 0
-1854 -1867 -1918 -1954 -2107 0
-1854 -1867 -1918 -1961 0
-1815 -1854 -1867 -2026 0
-1854 -1867 -2026 -2107 0
-1854 -1867 -2018 -2026 0
-1854 -1867 -2041 -2112 -2161 0
-1729 -1732 -1854 -1867 0
-1854 -1867 -1954 -2107 0
-1667 -1729 -1854 -1867 0
-1660 -1664 -1854 -1867 0
-1729 -1826 -1854 -1867 0
-1827 -1854 -1867 0
-1827 -1854 -1867 -1961 0
-1854 -1867 -1908 -1911 0
-1854 -1867 -1908 -1961 -2026 0
-1841 -1854 -1867 -1908 0
-1841 -1854 -1867 -1908 -1961 0
-1840 -2026 -2112 0
-1840 -1911 -2112 0
-1840 -1954 -2112 0
-1840 -1961 -2029 0
-1840 -1961 -2029 -2051 0
-1840 -1933 -2112 -2161 0
-1840 -1908 -2041 -2107 -2149 0
-1840 -1976 -2051 -2112 -2161 0
-1827 -1840 -2026 -2112 0
-1827 -1840 -1957 -2041 -2107 -2149 0
-1840 -1841 -2112 0
-1840 -1841 -2041 -2107 -2149 0
-1698 -2112 0
-1698 -2041 -2107 -2149 0
-1698 -1867 0
-1698 -1729 -1732 -1867 0
-1698 -1867 -1954 -2107 0
-1698 -1867 -1961 0
-1667 -1698 -1729 -1867 0
-1660 -1664 -1698 -1867 0
-1698 -1729 -1826 -1867 0
-1698 -1827 -1867 0
-1698 -1827 -1867 -1961 0
-1698 -1841 -1933 -2112 -2161 0
-1698 -1908 -1954 -2112 0
-1698 -1841 -1908 -2041 -2107 -2149 0
-1698 -1841 -1976 -2051 -2112 -2161 0
-1698 -1787 -1867 0
-1698 -1729 -1732 -1787 -1867 0
-1698 -1787 -1867 -1954 -2107 0
-1698 -1787 -1867 -1961 0
-1667 -1698 -1729 -1787 -1867 0
-1660 -1664 -1698 -1787 -1867 0
-1698 -1729 -1787 -1826 -1867 0
-1698 -1787 -1827 -1867 0
-1698 -1787 -1827 -1867 -1961 0
-1698 -2112 -2161 0
-1698 -2051 -2112 -2161 0
-1698 -2040 -2107 -2149 0
-1698 -1867 -2121 0
-1698 -1815 -1867 -1911 -1961 0
-1698 -1867 -1918 0
-1698 -1867 -1918 -1954 -2107 0
-1698 -1867 -1918 -1961 0
-1698 -1815 -1867 -2026 0
-1698 -1867 -2026 -2107 0
-1698 -1867 -2018 -2026 0
-1698 -1867 -2041 -2112 -2161 0
-1698 -1867 -1983 0
-1698 -1867 -1983 -2121 0
-1698 -1863 -1983 -2051 0
-1698 -1863 -1983 -2051 -2121 0
-1698 -1867 -1976 -2112 -2161 0
-1660 -1698 -1848 -1867 0
-1660 -1698 -1854 0
-1660 -1698 -1854 -2051 0
-1660 -1698 -1840 -1867 0
-1664 -1698 -1848 -1867 0
-1664 -1698 -1848 -1867 -1954 -2107 0
-1664 -1698 -1848 -1867 -1961 0
-1664 -1698 -1848 -1908 -1954 -2112 0
-1664 -1698 -1854 0
-1664 -1698 -1854 -2051 0
-1664 -1698 -1854 -1954 -2107 0
-1664 -1698 -1854 -1954 -2051 -2107 0
-1664 -1698 -1854 -1961 0
-1664 -1698 -1854 -1961 -2051 0
-1664 -1698 -1840 -1867 0
-1664 -1698 -1840 -1867 -1954 -2107 0
-1664 -1698 -1840 -1867 -1961 0
-1698 -1769 -2112 0
-1698 -1769 -2041 -2107 -2149 0
-2040 -2048 -2112 -2161 0
-1862 -1863 -2112 -2161 0
-1862 -1867 -2112 -2161 0
-1862 -1867 -2040 -2048 -2112 -2161 0
-1862 -1983 -2051 0
-1862 -1983 -2051 -2121 0
-1862 -1863 -2051 -2112 -2161 0
-1862 -1863 -2040 -2107 -2149 0
-1719 -2112 -2161 0
-1719 -2040 -2048 -2112 -2161 0
-1719 -1776 -1867 -2112 -2161 0
-1719 -1776 -1867 -2040 -2048 -2112 -2161 0
-1719 -2051 -2112 -2161 0
-1719 -2040 -2107 -2149 0
-1878 -2112 -2161 0
-1878 -2040 -2048 -2112 -2161 0
-2115 0
-1665 0
-1987 -2115 0
-1665 -1920 0
-1837 -2048 -2115 0
-1665 -1908 -1954 0
-1940 -2115 0
-1665 -2027 0
-1837 -1933 -1987 -2115 0
-1665 -1908 -1920 -2026 0
-1849 -2115 0
-1665 -1991 0
-1849 -1987 -2115 0
-1665 -1920 -1991 0
-1686 -1776 -2115 0
-1665 -2041 -2089 0
-1686 -1870 -2115 0
-1665 -2041 -2110 0
-1862 -1870 -2115 0
-1665 -2110 -2113 0
-1862 -1870 -1987 -2115 0
-1665 -1920 -2110 -2113 0
-1837 -1862 -1870 -2048 -2115 0
-1665 -1908 -1954 -2110 -2113 0
-1862 -1870 -1940 -2115 0
-1665 -2027 -2110 -2113 0
-1837 -1862 -1870 -1933 -1987 -2115 0
-1665 -1908 -1920 -2026 -2110 -2113 0
-1718 -2115 0
-1665 -2161 0
-1718 -1849 -2115 0
-1665 -1991 -2161 0
-1718 -1849 -1987 -2115 0
-1665 -1920 -1991 -2161 0
-1686 -1711 -2115 0
-1665 -2041 -2160 0
-1670 -1718 0
-1865 -2161 0
-1670 -1682 -1689 -1718 0
-1865 -2040 -2048 -2161 0
-1670 0
-1865 0
-1670 -1682 -1689 0
-1865 -2040 -2048 0
-1670 -1940 0
-1865 -2027 0
-1642 -1668 -1815 -1940 0
-1618 -1686 -1860 -2027 0
-1642 -1668 -1815 0
-1618 -1686 -1860 0
-1670 -1754 -1837 0
-1865 -1908 -1933 0
-1670 -1791 0
-1865 -2096 0
-1670 -1682 -1689 -1791 0
-1865 -2040 -2048 -2096 0
-1670 -1837 -1848 0
-1865 -1908 -1976 0
-1670 -1689 -1841 0
-1837 -1865 -2048 0
-1668 -1689 -2115 0
-1665 -1860 -2048 0
-1670 -1689 -1837 0
-1865 -1908 -2048 0
-1697 -2115 0
-1665 -2051 0
-1697 -1761 -1837 0
-1908 -1941 -2051 0
-1697 -1761 -1837 -1961 0
-1697 -1908 -1941 -2051 0
-1711 -1712 -2115 0
-1665 -2150 -2160 0
-1711 -1712 -1849 -2115 0
-1665 -1991 -2150 -2160 0
-1711 -1712 -1849 -1987 -2115 0
-1665 -1920 -1991 -2150 -2160 0
-1686 -1712 -2115 0
-1665 -2041 -2150 0
-1670 -1711 -1863 0
-1865 -2015 -2160 0
-1670 -1682 -1689 -1711 -1863 0
-1865 -2015 -2040 -2048 -2160 0
-1670 -1873 0
-1865 -2117 0
-1642 -1668 -1815 -1873 0
-1618 -1686 -1860 -2117 0
-1873 -2115 0
-1665 -2117 0
-1670 -1754 -1837 -1873 0
-1865 -1908 -1933 -2117 0
-1670 -1791 -1873 0
-1865 -2096 -2117 0
-1670 -1682 -1689 -1791 -1873 0
-1865 -2040 -2048 -2096 -2117 0
-1670 -1837 -1848 -1873 0
-1865 -1908 -1976 -2117 0
-1670 -1689 -1841 -1873 0
-1837 -1865 -2048 -2117 0
-1670 -1689 -1837 -1873 0
-1865 -1908 -2048 -2117 0
-1668 -1689 -1873 -2115 0
-1665 -1860 -2048 -2117 0
-1697 -1873 -2115 0
-1665 -2051 -2117 0
-1697 -1761 -1837 -1873 0
-1908 -1941 -2051 -2117 0
-1697 -1761 -1837 -1873 -1961 0
-1697 -1908 -1941 -2051 -2117 0
-1686 -1712 -1873 -2115 0
-1665 -2041 -2117 -2150 0
-1670 -1718 -1873 0
-1865 -2117 -2161 0
-1670 -1682 -1689 -1718 -1873 0
-1865 -2040 -2048 -2117 -2161 0
-1686 -1711 -1873 -2115 0
-1665 -2041 -2117 -2160 0
-1712 -1776 -1873 -2115 0
-1665 -2089 -2117 -2150 0
-1712 -1776 -1849 -1873 -2115 0
-1665 -1991 -2089 -2117 -2150 0
-1712 -1776 -1849 -1873 -1987 -2115 0
-1665 -1920 -1991 -2089 -2117 -2150 0
-1849 -1873 -2115 0
-1665 -1991 -2117 0
-1849 -1873 -1987 -2115 0
-1665 -1920 -1991 -2117 0
-1670 -1682 -1689 -1873 0
-1865 -2040 -2048 -2117 0
-1670 -1873 -1940 0
-1865 -2027 -2117 0
-1642 -1668 -1815 -1873 -1940 0
-1618 -1686 -1860 -2027 -2117 0
-1873 -1987 -2115 0
-1665 -1920 -2117 0
-1837 -1873 -2048 -2115 0
-1665 -1908 -1954 -2117 0
-1873 -1940 -2115 0
-1665 -2027 -2117 0
-1837 -1873 -1933 -1987 -2115 0
-1665 -1908 -1920 -2026 -2117 0
-1670 -1776 -1863 -1873 0
-1865 -2015 -2089 -2117 0
-1670 -1682 -1689 -1776 -1863 -1873 0
-1865 -2015 -2040 -2048 -2089 -2117 0
-1712 -1870 -2115 0
-1665 -2110 -2150 0
-1862 -1863 -2115 0
-1665 -2015 -2113 0
-1712 -1776 -2115 0
-1665 -2089 -2150 0
-1791 -2115 0
-1665 -2096 0
-1697 -1791 -2115 0
-1665 -2051 -2096 0
-1670 -1747 -1837 -2026 0
-1718 -1754 -1865 -1908 0
-1642 -1668 -1815 -1837 -1841 0
-1618 -1686 -1837 -1860 -1908 0
-1670 -1747 -1837 -1911 -1961 0
-1697 -1718 -1848 -1865 -1908 0
-1670 -1747 0
-1718 -1865 0
-1670 -1747 -1961 0
-1697 -1718 -1865 0
-1642 -1668 -1957 0
-1618 -1682 -1860 0
-1676 -2115 0
-1665 -1876 0
-1686 -1697 -1848 -2115 0
-1665 -1976 -2041 -2051 0
-1668 -1689 -1849 -2115 0
-1665 -1860 -1991 -2048 0
-1697 -1849 -2115 0
-1665 -1991 -2051 0
-1686 -1754 -2115 0
-1665 -1933 -2041 0
-1668 -1754 -2115 0
-1665 -1860 -1933 0
-1754 -1757 -2115 0
-1665 -1926 -1933 0
-1670 -1747 -1815 -2115 0
-1665 -1686 -1718 -1865 0
-1919 -2115 0
-1665 -1851 0
-1676 -1919 -2115 0
-1665 -1851 -1876 0
-1919 -1961 -2015 0
-1664 -1697 -1851 0
-1676 -1919 -1961 -2015 0
-1664 -1697 -1851 -1876 0
-1670 -1747 -1911 -2115 0
-1665 -1718 -1848 -1865 0
-1862 -1933 -2115 0
-1665 -2026 -2113 0
-1863 -1933 -2115 0
-1665 -2015 -2026 0
-1668 -1689 -1863 -1933 -2115 0
-1665 -1860 -2015 -2026 -2048 0
-1697 -1863 -1933 -2115 0
-1665 -2015 -2026 -2051 0
-1670 -1689 -1841 -1863 -1933 0
-1837 -1865 -2015 -2026 -2048 0
-1670 -1747 -2082 -2089 0
-1718 -1818 -1826 -1865 0
-1670 -1747 -1961 -2082 -2089 0
-1697 -1718 -1818 -1826 -1865 0
-1642 -1668 -1957 -2082 -2089 0
-1618 -1682 -1818 -1826 -1860 0
-1697 -1987 -2115 0
-1665 -1920 -2051 0
-1676 -1987 -2115 0
-1665 -1876 -1920 0
-1686 -1697 -1848 -1987 -2115 0
-1665 -1920 -1976 -2041 -2051 0
-1668 -1689 -1849 -1987 -2115 0
-1665 -1860 -1920 -1991 -2048 0
-1697 -1849 -1987 -2115 0
-1665 -1920 -1991 -2051 0
-1686 -1754 -1987 -2115 0
-1665 -1920 -1933 -2041 0
-1668 -1754 -1987 -2115 0
-1665 -1860 -1920 -1933 0
-1754 -1757 -1987 -2115 0
-1665 -1920 -1926 -1933 0
-1670 -1747 -1815 -1987 -2115 0
-1665 -1686 -1718 -1865 -1920 0
-1711 -1712 -1987 -2115 0
-1665 -1920 -2150 -2160 0
-1668 -1689 -1987 -2115 0
-1665 -1860 -1920 -2048 0
-1712 -1870 -1987 -2115 0
-1665 -1920 -2110 -2150 0
-1862 -1863 -1987 -2115 0
-1665 -1920 -2015 -2113 0
-1712 -1776 -1987 -2115 0
-1665 -1920 -2089 -2150 0
-1791 -1987 -2115 0
-1665 -1920 -2096 0
-1697 -1791 -1987 -2115 0
-1665 -1920 -2051 -2096 0
-1841 -1848 -1987 -2115 0
-1665 -1837 -1920 -1976 0
-1697 -1754 -1841 -1987 -2115 0
-1665 -1837 -1920 -1933 -2051 0
-1837 -1841 -1987 -2115 0
-1665 -1837 -1908 -1920 0
-1697 -1837 -1841 -1987 -2115 0
-1665 -1837 -1908 -1920 -2051 0
-1670 -1754 -1979 0
-1865 -1904 -1933 0
-1670 -1848 -1979 0
-1865 -1904 -1976 0
-1670 -1689 -1979 0
-1865 -1904 -2048 0
-1697 -1761 -1979 0
-1904 -1941 -2051 0
-1697 -1761 -1961 -1979 0
-1697 -1904 -1941 -2051 0
-1670 -1747 -1979 -2026 0
-1718 -1754 -1865 -1904 0
-1642 -1668 -1815 -1841 -1979 0
-1618 -1686 -1837 -1860 -1904 0
-1670 -1747 -1911 -1961 -1979 0
-1697 -1718 -1848 -1865 -1904 0
-1670 -1754 -1791 -1979 0
-1865 -1904 -1933 -2096 0
-1642 -1668 -1682 -1791 -1815 -1979 0
-1618 -1686 -1860 -1904 -2040 -2096 0
-1670 -1837 -1979 0
-1865 -1904 -1908 0
-1642 -1668 -1815 -1837 -1979 0
-1618 -1686 -1860 -1904 -1908 0
-1670 -2054 0
-1865 -1965 0
-1642 -1668 -1815 -2054 0
-1618 -1686 -1860 -1965 0
-2054 -2115 0
-1665 -1965 0
-1711 -1712 -2054 -2115 0
-1665 -1965 -2150 -2160 0
-1668 -1689 -2054 -2115 0
-1665 -1860 -1965 -2048 0
-1697 -2054 -2115 0
-1665 -1965 -2051 0
-1712 -1870 -2054 -2115 0
-1665 -1965 -2110 -2150 0
-1862 -1863 -2054 -2115 0
-1665 -1965 -2015 -2113 0
-1712 -1776 -2054 -2115 0
-1665 -1965 -2089 -2150 0
-1791 -2054 -2115 0
-1665 -1965 -2096 0
-1697 -1791 -2054 -2115 0
-1665 -1965 -2051 -2096 0
-1670 -1747 -1837 -2026 -2054 0
-1718 -1754 -1865 -1908 -1965 0
-1670 -1689 -1841 -2054 0
-1837 -1865 -1965 -2048 0
-1642 -1668 -1815 -1837 -1841 -2054 0
-1618 -1686 -1837 -1860 -1908 -1965 0
-1670 -1747 -1837 -1911 -1961 -2054 0
-1697 -1718 -1848 -1865 -1908 -1965 0
-2054 -2098 -2115 0
-1665 -1832 -1965 0
-1711 -1712 -2054 -2098 -2115 0
-1665 -1832 -1965 -2150 -2160 0
-1668 -1689 -2054 -2098 -2115 0
-1665 -1832 -1860 -1965 -2048 0
-1697 -2054 -2098 -2115 0
-1665 -1832 -1965 -2051 0
-1712 -1870 -2054 -2098 -2115 0
-1665 -1832 -1965 -2110 -2150 0
-1862 -1863 -2054 -2098 -2115 0
-1665 -1832 -1965 -2015 -2113 0
-1712 -1776 -2054 -2098 -2115 0
-1665 -1832 -1965 -2089 -2150 0
-1791 -2054 -2098 -2115 0
-1665 -1832 -1965 -2096 0
-1697 -1791 -2054 -2098 -2115 0
-1665 -1832 -1965 -2051 -2096 0
-1670 -1747 -2054 0
-1718 -1865 -1965 0
-1670 -1747 -1961 -2054 0
-1697 -1718 -1865 -1965 0
-1642 -1668 -1957 -2054 0
-1618 -1682 -1860 -1965 0
-1676 -2054 -2115 0
-1665 -1876 -1965 0
-1686 -1697 -1848 -2054 -2115 0
-1665 -1965 -1976 -2041 -2051 0
-1849 -2054 -2115 0
-1665 -1965 -1991 0
-1668 -1689 -1849 -2054 -2115 0
-1665 -1860 -1965 -1991 -2048 0
-1697 -1849 -2054 -2115 0
-1665 -1965 -1991 -2051 0
-1686 -1754 -2054 -2115 0
-1665 -1933 -1965 -2041 0
-1668 -1754 -2054 -2115 0
-1665 -1860 -1933 -1965 0
-1754 -1757 -2054 -2115 0
-1665 -1926 -1933 -1965 0
-1670 -1747 -1815 -2054 -2115 0
-1665 -1686 -1718 -1865 -1965 0
-1919 -2054 -2115 0
-1665 -1851 -1965 0
-1676 -1919 -2054 -2115 0
-1665 -1851 -1876 -1965 0
-1919 -1961 -2015 -2054 0
-1664 -1697 -1851 -1965 0
-1676 -1919 -1961 -2015 -2054 0
-1664 -1697 -1851 -1876 -1965 0
-1670 -1747 -1911 -2054 -2115 0
-1665 -1718 -1848 -1865 -1965 0
-1862 -1976 -2054 -2115 0
-1665 -1911 -1965 -2113 0
-1862 -1987 -2054 0
-1920 -1965 -2113 0
-1862 -1961 -1987 -2054 0
-1697 -1920 -1965 -2113 0
-1862 -1979 -2054 -2115 0
-1665 -1904 -1965 -2113 0
-1863 -1976 -2054 -2115 0
-1665 -1911 -1965 -2015 0
-1668 -1689 -1863 -1976 -2054 -2115 0
-1665 -1860 -1911 -1965 -2015 -2048 0
-1697 -1863 -1976 -2054 -2115 0
-1665 -1911 -1965 -2015 -2051 0
-1670 -1689 -1841 -1863 -1976 -2054 0
-1837 -1865 -1911 -1965 -2015 -2048 0
-1863 -1987 -2054 0
-1920 -1965 -2015 0
-1863 -1961 -1987 -2054 0
-1697 -1920 -1965 -2015 0
-1668 -1689 -1863 -1987 -2054 0
-1860 -1920 -1965 -2015 -2048 0
-1668 -1689 -1863 -1961 -1987 -2054 0
-1697 -1860 -1920 -1965 -2015 -2048 0
-1697 -1863 -1987 -2054 0
-1920 -1965 -2015 -2051 0
-1697 -1863 -1961 -1987 -2054 0
-1697 -1920 -1965 -2015 -2051 0
-1863 -1979 -2054 -2115 0
-1665 -1904 -1965 -2015 0
-1668 -1689 -1863 -1979 -2054 -2115 0
-1665 -1860 -1904 -1965 -2015 -2048 0
-1697 -1863 -1979 -2054 -2115 0
-1665 -1904 -1965 -2015 -2051 0
-1670 -1940 -2054 0
-1865 -1965 -2027 0
-1642 -1668 -1815 -1940 -2054 0
-1618 -1686 -1860 -1965 -2027 0
-1670 -1747 -1954 -1957 0
-1682 -1689 -1718 -1865 0
-1670 -1747 -2015 -2113 0
-1660 -1664 -1718 -1865 0
-1670 -1747 -2113 -2115 0
-1660 -1665 -1718 -1865 0
-1670 -1747 -1954 -1957 -2113 -2115 0
-1660 -1665 -1682 -1689 -1718 -1865 0
-1919 -1961 -2113 0
-1660 -1697 -1851 0
-1676 -1919 -1961 -2113 0
-1660 -1697 -1851 -1876 0
-1670 -1747 -1961 -2015 -2113 0
-1660 -1664 -1697 -1718 -1865 0
-1642 -1668 -1957 -2015 -2113 0
-1618 -1660 -1664 -1682 -1860 0
-1670 -1747 -2163 0
-1718 -1739 -1865 0
-1670 -1747 -1954 -1957 -2163 0
-1682 -1689 -1718 -1739 -1865 0
-1670 -1747 -2089 -2115 -2163 0
-1665 -1718 -1739 -1826 -1865 0
-1670 -1747 -1954 -1957 -2089 -2115 -2163 0
-1665 -1682 -1689 -1718 -1739 -1826 -1865 0
-1670 -1747 -1961 -2163 0
-1697 -1718 -1739 -1865 0
-1642 -1668 -1957 -2163 0
-1618 -1682 -1739 -1860 0
-1670 -1747 -2124 0
-1677 -1718 -1865 0
-1670 -1747 -1954 -1957 -2124 0
-1677 -1682 -1689 -1718 -1865 0
-1684 -2041 -2107 -2150 0
-1684 -1919 -1991 -2018 -2121 0
-1668 -1729 -1815 -2046 0
-1686 -1712 -1860 -1949 0
-1676 -1757 -1851 -1918 -2046 0
-1849 -1876 -1926 -1949 -1983 0
-1769 -2041 -2107 -2150 0
-2041 -2107 -2150 0
-1919 -2041 -2107 -2150 0
-1729 -1751 -1957 0
-1729 -1751 -1957 -2051 0
-1729 -1751 -1957 -2150 -2160 0
-1729 -1751 -1957 -2089 -2150 0
-1729 -1751 -1957 -2096 0
-1729 -1751 -1957 -2051 -2096 0
-1729 -1751 -1957 -2110 -2150 0
-1675 -2041 -2107 -2150 0
-1675 -1919 -2041 -2107 -2150 0
-1675 -1769 -2041 -2107 -2150 0
-1675 -1751 0
-1675 -1751 -1873 0
-1675 -1751 -2051 0
-1675 -1751 -1940 0
-1675 -1751 -1873 -1940 0
-1675 -1751 -1940 -2051 0
-1675 -1751 -1933 -2041 0
-1675 -1751 -1991 0
-1675 -1751 -1991 -2051 0
-1675 -1751 -1976 -2041 -2051 0
-1675 -1751 -1854 0
-1675 -1751 -1854 -2051 0
-1919 -1991 -2018 -2121 0
-2040 -2107 -2150 0
-1827 -1854 -1904 -1961 0
-1827 -1854 -1873 -1904 -1961 0
-1854 -1908 -1919 0
-1854 -1873 -1908 -1919 0
-1595 -1848 -2041 -2107 -2150 0
-1595 -1660 -1838 0
-1595 -1660 -1838 -2051 0
-1595 -1689 -2041 -2107 -2150 0
-1595 -1689 -1919 -1991 -2018 -2121 0
-1595 -1754 -2041 -2107 -2150 0
-1595 -1751 -1838 0
-1595 -1751 -1838 -2051 0
-1595 -1729 -1732 -1751 -1838 0
-1595 -1729 -1732 -1751 -1838 -2051 0
-1595 -1776 -2040 -2107 -2150 0
-1595 -1773 -2040 -2107 -2150 0
-1862 -1863 -2040 -2107 -2150 0
-1719 -1827 -1854 -1873 -1904 -1961 0
-1719 -1854 -1873 -1908 -1919 0
-1719 -1773 -1873 0
-1719 -1729 -1732 -1773 -1873 0
-1719 -1773 -1873 -1954 -2107 0
-1719 -1773 -1873 -1961 0
-1667 -1719 -1729 -1773 -1873 0
-1719 -1729 -1773 -1826 -1873 0
-1719 -1773 -1827 -1873 0
-1719 -1773 -1827 -1873 -1961 0
-1719 -1773 -1873 -1919 0
-1719 -1773 -1873 -1919 -2026 -2107 0
-1660 -1719 -1754 -1773 -1873 0
-1719 -1751 -1754 -1773 -1873 0
-1719 -1729 -1732 -1751 -1754 -1773 -1873 0
-1719 -2040 -2107 -2150 0
-1668 -1729 -1815 -1940 0
-1686 -1712 -1860 -2027 0
-1668 -1729 -1815 0
-1686 -1712 -1860 0
-1668 -1729 -1815 -1851 0
-1686 -1712 -1860 -1983 0
-1682 -1712 -1934 0
-2016 -2040 -2150 0
-1682 -1712 -1934 -1961 0
-1697 -2016 -2040 -2150 0
-1682 -1712 -1729 -1732 -1934 0
-1711 -1712 -2016 -2040 -2150 0
-1682 -1712 -1729 -1826 -1934 0
-1712 -1776 -2016 -2040 -2150 0
-1682 -1712 -1827 -1934 0
-1791 -2016 -2040 -2150 0
-1682 -1712 -1827 -1934 -1961 0
-1697 -1791 -2016 -2040 -2150 0
-1667 -1682 -1712 -1729 -1934 0
-1712 -1870 -2016 -2040 -2150 0
-1668 -1729 -1815 -1873 0
-1686 -1712 -1860 -2117 0
-1668 -1729 -1815 -1851 -1873 0
-1686 -1712 -1860 -1983 -2117 0
-1668 -1729 -1815 -1873 -1940 0
-1686 -1712 -1860 -2027 -2117 0
-1873 -1934 0
-2016 -2117 0
-1873 -1934 -2117 0
-1675 -2016 -2117 0
-1873 -1934 -1961 0
-1697 -2016 -2117 0
-1873 -1934 -2027 0
-1769 -2016 -2117 0
-1873 -1934 -2027 -2117 0
-1675 -1769 -2016 -2117 0
-1873 -1934 -1961 -2027 0
-1697 -1769 -2016 -2117 0
-1815 -1873 -1934 -2026 0
-1686 -1754 -2016 -2117 0
-1873 -1918 -1934 0
-1849 -2016 -2117 0
-1873 -1918 -1934 -1961 0
-1697 -1849 -2016 -2117 0
-1815 -1873 -1911 -1934 -1961 0
-1686 -1697 -1848 -2016 -2117 0
-1873 -1934 -1987 0
-1920 -2016 -2117 0
-1873 -1934 -1961 -1987 0
-1697 -1920 -2016 -2117 0
-1676 -1757 -1851 -1918 0
-1849 -1876 -1926 -1983 0
-1668 -1729 -1957 0
-1682 -1712 -1860 0
-1697 -1791 -1840 -1987 0
-1920 -1979 -2051 -2096 0
-1697 -1791 -1840 -1987 -2117 0
-1675 -1920 -1979 -2051 -2096 0
-1841 -1851 -1987 0
-1837 -1920 -1983 0
-1841 -1851 -1987 -2117 0
-1675 -1837 -1920 -1983 0
-1668 -1729 -1815 -1976 -2037 0
-1686 -1712 -1860 -1886 -1911 0
-1862 -1973 -2037 0
-1886 -1912 -2113 0
-1862 -1961 -1973 -2037 0
-1697 -1886 -1912 -2113 0
-1668 -1729 -1815 -2037 -2048 0
-1686 -1712 -1860 -1886 -1954 0
-1676 -1757 -1851 -1918 -2037 -2048 0
-1849 -1876 -1886 -1926 -1954 -1983 0
-1668 -1729 -1815 -1933 -2037 0
-1686 -1712 -1860 -1886 -2026 0
-1934 -1973 -2037 0
-1886 -1912 -2016 0
-1934 -1961 -1973 -2037 0
-1697 -1886 -1912 -2016 0
-1711 -1712 -1934 -1973 -2037 0
-1886 -1912 -2016 -2150 -2160 0
-1711 -1712 -1934 -1961 -1973 -2037 0
-1697 -1886 -1912 -2016 -2150 -2160 0
-1668 -1729 -1957 -2037 -2089 0
-1682 -1712 -1826 -1860 -1886 0
-1668 -1729 -1957 -2037 -2090 0
-1682 -1712 -1816 -1860 -1886 0
-1668 -1729 -1957 -2015 -2113 0
-1660 -1664 -1682 -1712 -1860 0
-1697 -1791 -1840 -1987 -2117 -2163 0
-1675 -1739 -1920 -1979 -2051 -2096 0
-1841 -1851 -1987 -2117 -2163 0
-1675 -1739 -1837 -1920 -1983 0
-2090 -2117 -2163 0
-1675 -1739 -1816 0
-1711 -1712 -2090 -2117 -2163 0
-1675 -1739 -1816 -2150 -2160 0
-1668 -1689 -2090 -2117 -2163 0
-1675 -1739 -1816 -1860 -2048 0
-1697 -2090 -2117 -2163 0
-1675 -1739 -1816 -2051 0
-1712 -1870 -2090 -2117 -2163 0
-1675 -1739 -1816 -2110 -2150 0
-1712 -1776 -2090 -2117 -2163 0
-1675 -1739 -1816 -2089 -2150 0
-1791 -2090 -2117 -2163 0
-1675 -1739 -1816 -2096 0
-1697 -1791 -2090 -2117 -2163 0
-1675 -1739 -1816 -2051 -2096 0
-1851 -2090 -2117 -2163 0
-1675 -1739 -1816 -1983 0
-1668 -1754 -1851 -2090 -2117 -2163 0
-1675 -1739 -1816 -1860 -1933 -1983 0
-1862 -1933 -2090 -2117 -2163 0
-1675 -1739 -1816 -2026 -2113 0
-1933 -1934 -2090 -2117 -2163 0
-1675 -1739 -1816 -2016 -2026 0
-1711 -1712 -1933 -1934 -2090 -2117 -2163 0
-1675 -1739 -1816 -2016 -2026 -2150 -2160 0
-1668 -1729 -1957 -2163 0
-1682 -1712 -1739 -1860 0
-1702 -1754 -2041 -2121 -2166 0
-1702 -1754 -1949 0
-1702 -1754 -1949 -2051 0
-1702 -1754 -1949 -2166 0
-1702 -1754 -1949 -2096 0
-1702 -1754 -1949 -2051 -2096 0
-1702 -1754 -1949 -2096 -2166 0
-1684 -2041 -2121 -2166 0
-1684 -1949 0
-1684 -1949 -2051 0
-1684 -1949 -2166 0
-1684 -1949 -2096 0
-1684 -1949 -2051 -2096 0
-1684 -1949 -2096 -2166 0
-1684 -1920 -2041 -2121 -2166 0
-1702 -1773 -1949 0
-1702 -1773 -1949 -2051 0
-1702 -1773 -2040 -2121 -2166 0
-1686 -1719 -1876 -1949 0
-1676 -1743 -1815 -1933 -2052 0
-1686 -1720 -1876 -1960 -2026 0
-1684 -1933 -2052 0
-1960 -2026 -2046 0
-1684 -1933 -1961 -2052 0
-1697 -1960 -2026 -2046 0
-1684 -1743 -1933 -2052 0
-1720 -1960 -2026 -2046 0
-1684 -1827 -1933 -2052 0
-1791 -1960 -2026 -2046 0
-1684 -1827 -1933 -1961 -2052 0
-1697 -1791 -1960 -2026 -2046 0
-1684 -1743 -1827 -1933 -2052 0
-1720 -1791 -1960 -2026 -2046 0
-1676 -1743 -1815 -2046 0
-1686 -1720 -1876 -1949 0
-1684 -2046 0
-1949 -2046 0
-1684 -1961 -2046 0
-1697 -1949 -2046 0
-1684 -1743 -2046 0
-1720 -1949 -2046 0
-1684 -1827 -2046 0
-1791 -1949 -2046 0
-1684 -1827 -1961 -2046 0
-1697 -1791 -1949 -2046 0
-1684 -1743 -1827 -2046 0
-1720 -1791 -1949 -2046 0
-1676 -1743 -1815 -1854 -2046 0
-1686 -1720 -1876 -1949 -1987 0
-1684 -2052 -2090 0
-1816 -1960 -2046 0
-1684 -1961 -2052 -2090 0
-1697 -1816 -1960 -2046 0
-1676 -1743 -1957 -2052 -2090 0
-1682 -1720 -1816 -1876 -1960 0
-1684 -2041 -2121 -2163 0
-1676 -1739 -1815 -2046 0
-1572 -1729 -1815 -1859 -1940 0
-1572 -1769 -2097 -2107 -2163 0
-1572 -1769 -1949 0
-1572 -1769 -1859 -1949 -2048 0
-1572 -1769 -1949 -2051 0
-1572 -1769 -1949 -2163 0
-1572 -1769 -1859 -1908 -1940 -1949 0
-1572 -1769 -1949 -2082 -2089 0
-1572 -1769 -1949 -2037 -2089 0
-1714 -1949 0
-1689 -1714 -1769 -1908 -1949 0
-1714 -1848 -1908 -1949 0
-1714 -1838 -1908 -1949 0
-1720 -1783 -1859 -1949 0
-1686 -1712 -1859 -2027 -2064 0
-1572 -1769 -2041 -2064 -2150 0
-1668 -1739 -1829 -1859 -1940 0
-1719 -1783 -1860 -2027 -2064 0
-1684 -1859 -1940 0
-2027 -2046 -2064 0
-1684 -1859 -1940 -1954 -2064 0
-1572 -1689 -2027 -2046 -2064 0
-1684 -1859 -1940 -1961 0
-1697 -2027 -2046 -2064 0
-1684 -1739 -1859 -1940 0
-1719 -2027 -2046 -2064 0
-1684 -1841 -1859 -1940 -2027 -2064 0
-1572 -1769 -1837 -2027 -2046 -2064 0
-1684 -1818 -1826 -1859 -1940 0
-1776 -1779 -2027 -2046 -2064 0
-1684 -1826 -1859 -1886 -1940 0
-1595 -1776 -2027 -2046 -2064 0
-1684 -2155 0
-1734 -2046 0
-1684 -1841 -1940 -2048 -2155 0
-1734 -1837 -1954 -2027 -2046 0
-1684 -1841 -1976 -2155 0
-1734 -1837 -1911 -2046 0
-1684 -1841 -1973 -2155 0
-1734 -1837 -1912 -2046 0
-1684 -2064 -2097 -2166 0
-1572 -1743 -1829 -2046 0
-1717 -1870 -1949 0
-1717 -1870 -1949 -2037 -2048 0
-1717 -1870 -1949 -2051 0
-1706 -1949 0
-1706 -1949 -2037 -2048 0
-1706 -1949 -2051 0
-1706 -1848 -1908 -1949 0
-1706 -1838 -1908 -1949 0
-1706 -1838 -1949 -2037 0
-1706 -1859 -1934 -1949 0
-1706 -1933 -1934 -1949 0
-1706 -1934 -1949 -1976 -2051 0
-1706 -1934 -1949 -2037 0
-1706 -1904 -1934 -2037 0
-1706 -1908 -1934 -2037 0
-1706 -1934 -1949 -1991 -2037 0
-1706 -1908 -1934 -2037 -2121 0
-1706 -1942 -1949 -2051 0
-1706 -1904 -1942 -2051 0
-1706 -1908 -1942 -2051 0
-1706 -1942 -1949 -1991 -2051 0
-1706 -1908 -1942 -2051 -2121 0
-1706 -1942 -1949 -1976 -2037 0
-1684 -2110 -2162 0
-1667 -1742 -2046 0
-1684 -1886 -1954 -2110 -2162 0
-1595 -1667 -1689 -1742 -2046 0
-1684 -1961 -2110 -2162 0
-1667 -1697 -1742 -2046 0
-1684 -2158 0
-1727 -2046 0
-1684 -1886 -1954 -2158 0
-1595 -1689 -1727 -2046 0
-1684 -1961 -2158 0
-1697 -1727 -2046 0
-1684 -1841 -1976 -2158 0
-1727 -1837 -1911 -2046 0
-1684 -1841 -1973 -2158 0
-1727 -1837 -1912 -2046 0
-1684 -1886 -1973 -2158 0
-1595 -1727 -1912 -2046 0
-1684 -2016 -2064 -2158 0
-1572 -1727 -1751 -2046 0
-1684 -2016 -2026 -2158 0
-1727 -1751 -1754 -2046 0
-1684 -1911 -1961 -2016 -2158 0
-1697 -1727 -1751 -1848 -2046 0
-1684 -1886 -2016 -2158 0
-1595 -1727 -1751 -2046 0
-1840 -1886 -2016 -2158 0
-1595 -1727 -1751 -1979 0
-1841 -1886 -2016 -2158 0
-1595 -1727 -1751 -1837 0
-1684 -1886 -1918 -2016 -2158 0
-1595 -1727 -1751 -1849 -2046 0
-1676 -1841 -1886 -2016 -2158 0
-1595 -1727 -1751 -1837 -1876 0
-1684 -1961 -2032 -2158 0
-1697 -1727 -1765 -2046 0
-1840 -1961 -2032 -2158 0
-1697 -1727 -1765 -1979 0
-1841 -1961 -2032 -2158 0
-1697 -1727 -1765 -1837 0
-1684 -1918 -1961 -2032 -2158 0
-1697 -1727 -1765 -1849 -2046 0
-1676 -1841 -1961 -2032 -2158 0
-1697 -1727 -1765 -1837 -1876 0
-1684 -1886 -1911 -2032 -2158 0
-1595 -1727 -1765 -1848 -2046 0
-1709 -1949 0
-1709 -1871 -1949 0
-1709 -1871 -1949 -2037 -2048 0
-1709 -1871 -1949 -2051 0
-1684 -2157 0
-1737 -2046 0
-1684 -2125 -2157 0
-1674 -1737 -2046 0
-1684 -1886 -1954 -2125 -2157 0
-1595 -1674 -1689 -1737 -2046 0
-1684 -1961 -2125 -2157 0
-1674 -1697 -1737 -2046 0
-2097 -2107 -2163 0
-1949 0
-1859 -1949 -2048 0
-1949 -2051 0
-1949 -2163 0
-1949 -2082 -2089 0
-1949 -2037 -2089 0
-1920 -1991 -2018 -2121 0
-1829 -2097 -2107 -2163 0
-1829 -1949 0
-1829 -1859 -1949 -2048 0
-1829 -1949 -2051 0
-1829 -1949 -2163 0
-1829 -1949 -2082 -2089 0
-1829 -1949 -2037 -2089 0
-1572 -1729 -1815 0
-1572 -1729 -1815 -2037 -2048 0
-1572 -1729 -1815 -2051 0
-1572 -1729 -1815 -1859 -1934 0
-1572 -1729 -1815 -1859 -1933 0
-1572 -1729 -1815 -1933 -2037 0
-1572 -1729 -1815 -1991 0
-1572 -1729 -1815 -1859 -1991 -2048 0
-1572 -1729 -1815 -1991 -2051 0
-1572 -1729 -1815 -1976 -2037 0
-1572 -1729 -1815 -1854 0
-1572 -1729 -1815 -1854 -2037 -2048 0
-1572 -1729 -1815 -1854 -2051 0
-1572 -1689 -1949 0
-1572 -1689 -1949 -2037 -2048 0
-1572 -1689 -1949 -2051 0
-1572 -1689 -1838 -1908 -1949 0
-1572 -1689 -1838 -1949 -1976 0
-1572 -1689 -1838 -1908 -1949 -2037 -2048 0
-1572 -1689 -1838 -1933 -1949 -2051 0
-1572 -1689 -1838 -1908 -1949 -2051 0
-1572 -1689 -1942 -1949 0
-1572 -1754 -2097 -2107 -2163 0
-1572 -1754 -1949 0
-1572 -1754 -1859 -1949 -2048 0
-1572 -1754 -1949 -2051 0
-1572 -1754 -1949 -2163 0
-1572 -1754 -1949 -2082 -2089 0
-1572 -1754 -1949 -2037 -2089 0
-1572 -1754 -1854 -1949 0
-1572 -1751 -2097 -2107 -2163 0
-1572 -1751 -1949 0
-1572 -1751 -1859 -1949 -2048 0
-1572 -1751 -1949 -2051 0
-1572 -1751 -1949 -2163 0
-1572 -1751 -1949 -2082 -2089 0
-1572 -1751 -1949 -2037 -2089 0
-1791 -1949 0
-1791 -1949 -2037 -2048 0
-1791 -1949 -2051 0
-1920 -2097 -2107 -2163 0
-1949 -2037 -2048 0
-1838 -1908 -1949 0
-1838 -1949 -1976 0
-1838 -1908 -1949 -2037 -2048 0
-1838 -1933 -1949 -2051 0
-1838 -1908 -1949 -2051 0
-1942 -1949 0
-1854 -1949 0
-1854 -1920 -1949 0
-1815 -1854 -1920 -1965 0
-1754 -1908 -1949 0
-1754 -1859 -1870 -1908 -1949 0
-1704 -1711 -1754 -1908 -1949 0
-1711 -1754 -1859 -1908 -1949 0
-1686 -1754 -2097 -2107 -2163 0
-1686 -1754 -1949 0
-1686 -1754 -1859 -1949 -2048 0
-1686 -1754 -1949 -2051 0
-1686 -1754 -1949 -2163 0
-1686 -1754 -1949 -2082 -2089 0
-1686 -1754 -1949 -2037 -2089 0
-1754 -1791 -1908 -1949 0
-1754 -1776 -1859 -1908 -1949 0
-1698 -2097 -2107 -2163 0
-1698 -1949 0
-1698 -1859 -1949 -2048 0
-1698 -1949 -2051 0
-1698 -1949 -2163 0
-1698 -1949 -2082 -2089 0
-1698 -1949 -2037 -2089 0
-1698 -1920 -2097 -2107 -2163 0
-1698 -1791 -1949 0
-1698 -1791 -1949 -2037 -2048 0
-1698 -1791 -1949 -2051 0
-1698 -1848 -1908 -1949 0
-1698 -1848 -1859 -1870 -1908 -1949 0
-1698 -1704 -1711 -1848 -1908 -1949 0
-1698 -1711 -1848 -1859 -1908 -1949 0
-1686 -1698 -1848 -2097 -2107 -2163 0
-1686 -1698 -1848 -1949 0
-1686 -1698 -1848 -1859 -1949 -2048 0
-1686 -1698 -1848 -1949 -2051 0
-1686 -1698 -1848 -1949 -2163 0
-1686 -1698 -1848 -1949 -2082 -2089 0
-1686 -1698 -1848 -1949 -2037 -2089 0
-1698 -1791 -1848 -1908 -1949 0
-1698 -1776 -1848 -1859 -1908 -1949 0
-1686 -1698 -1854 -1933 -1949 -2051 0
-1686 -1698 -1854 -1908 -1949 0
-1686 -1698 -1854 -1908 -1949 -2037 -2048 0
-1686 -1698 -1854 -1908 -1949 -2051 0
-1686 -1698 -1854 -1949 -1976 0
-1698 -1949 -2037 -2048 0
-1698 -1838 -1908 -1949 0
-1698 -1838 -1949 -1976 0
-1698 -1838 -1908 -1949 -2037 -2048 0
-1698 -1838 -1933 -1949 -2051 0
-1698 -1838 -1908 -1949 -2051 0
-1698 -1942 -1949 0
-1698 -1765 -1838 0
-1698 -1765 -1838 -2037 -2048 0
-1698 -1765 -1838 -2051 0
-1698 -1729 -1732 -1765 -1838 0
-1698 -1729 -1732 -1765 -1838 -2037 -2048 0
-1698 -1729 -1732 -1765 -1838 -2051 0
-1698 -1751 -1854 0
-1698 -1751 -1854 -2037 -2048 0
-1698 -1751 -1854 -2051 0
-1698 -1729 -1732 -1751 -1854 0
-1698 -1729 -1732 -1751 -1854 -2037 -2048 0
-1698 -1729 -1732 -1751 -1854 -2051 0
-1848 -1908 -1949 0
-1838 -1949 -2037 0
-1859 -1934 -1949 0
-1933 -1934 -1949 0
-1934 -1949 -1976 -2051 0
-1934 -1949 -2037 0
-1904 -1934 -2037 0
-1908 -1934 -2037 0
-1934 -1949 -1991 -2037 0
-1908 -1934 -2037 -2121 0
-1942 -1949 -2051 0
-1904 -1942 -2051 0
-1908 -1942 -2051 0
-1942 -1949 -1991 -2051 0
-1908 -1942 -2051 -2121 0
-1942 -1949 -1976 -2037 0
-1871 -1949 0
-1871 -1949 -2037 -2048 0
-1871 -1949 -2051 0
-1686 -1776 -1949 0
-1870 -1934 -1949 0
-1859 -1870 -1949 0
-1848 -1859 -1870 -1908 -1949 0
-1838 -1859 -1870 -1908 -1949 0
-1686 -1859 -1949 0
-1720 -1949 0
-1720 -1848 -1908 -1949 0
-1720 -1838 -1908 -1949 0
-1720 -1949 -2037 -2048 0
-1720 -1949 -2051 0
-1720 -1838 -1949 -2037 0
-1720 -1859 -1934 -1949 0
-1720 -1933 -1934 -1949 0
-1720 -1934 -1949 -1976 -2051 0
-1720 -1934 -1949 -2037 0
-1720 -1904 -1934 -2037 0
-1720 -1908 -1934 -2037 0
-1720 -1934 -1949 -1991 -2037 0
-1720 -1908 -1934 -2037 -2121 0
-1720 -1942 -1949 -2051 0
-1720 -1904 -1942 -2051 0
-1720 -1908 -1942 -2051 0
-1720 -1942 -1949 -1991 -2051 0
-1720 -1908 -1942 -2051 -2121 0
-1720 -1942 -1949 -1976 -2037 0
-1720 -1871 -1949 0
-1720 -1871 -1949 -2037 -2048 0
-1720 -1871 -1949 -2051 0
-1686 -1720 -1859 -1949 0
-1720 -1791 -1949 0
-1720 -1791 -1949 -2037 -2048 0
-1720 -1791 -1949 -2051 0
-1720 -1776 -1934 -1949 0
-1720 -1776 -1859 -1949 0
-1720 -1776 -1848 -1859 -1908 -1949 0
-1720 -1776 -1838 -1859 -1908 -1949 0
-1686 -1720 -1870 -1949 0
-1686 -1711 -1949 0
-1686 -1711 -1942 -1949 0
-1848 -1871 -1908 -1949 0
-1838 -1871 -1908 -1949 0
-1871 -1942 -1949 0
-1838 -1871 -1908 -1942 -1949 0
-1686 -1870 -1949 0
-1668 -1739 -1829 0
-1719 -1783 -1860 0
-1684 0
-2046 0
-1684 -1954 -2064 0
-1572 -1689 -2046 0
-1684 -1961 0
-1697 -2046 0
-1684 -1739 0
-1719 -2046 0
-1684 -1818 -1826 0
-1776 -1779 -2046 0
-1684 -1826 -1886 0
-1595 -1776 -2046 0
-1676 -1757 -1854 -1918 0
-1849 -1876 -1926 -1987 0
-1668 -1739 -1783 -1829 0
-1719 -1783 -1860 -2097 0
-1684 -1783 0
-2046 -2097 0
-1684 -1783 -1954 -2064 0
-1572 -1689 -2046 -2097 0
-1684 -1783 -1961 0
-1697 -2046 -2097 0
-1684 -1739 -1783 0
-1719 -2046 -2097 0
-1684 -1783 -1818 -1826 0
-1776 -1779 -2046 -2097 0
-1684 -1783 -1826 -1886 0
-1595 -1776 -2046 -2097 0
-1686 -1712 -1859 0
-2041 -2064 -2150 0
-1686 -1712 -1859 -1886 -1954 0
-1595 -1689 -2041 -2064 -2150 0
-1686 -1712 -1859 -1961 0
-1697 -2041 -2064 -2150 0
-1686 -1712 -1859 -2016 -2064 0
-1572 -1751 -2041 -2064 -2150 0
-1686 -1712 -1859 -2026 -2064 0
-1572 -1754 -2041 -2064 -2150 0
-1686 -1712 -1859 -1886 -2026 0
-1595 -1754 -2041 -2064 -2150 0
-1686 -1712 -1859 -1918 0
-1849 -2041 -2064 -2150 0
-1686 -1712 -1859 -1918 -1954 -2064 0
-1572 -1689 -1849 -2041 -2064 -2150 0
-1686 -1712 -1859 -1918 -1961 0
-1697 -1849 -2041 -2064 -2150 0
-1686 -1712 -1859 -1886 -1911 0
-1595 -1848 -2041 -2064 -2150 0
-1686 -1712 -1859 -1987 0
-1920 -2041 -2064 -2150 0
-1686 -1712 -1859 -1886 -1954 -1987 0
-1595 -1689 -1920 -2041 -2064 -2150 0
-1686 -1712 -1859 -1961 -1987 0
-1697 -1920 -2041 -2064 -2150 0
-1684 -1859 -2048 0
-1954 -2046 -2064 0
-1684 -1859 -1886 -1954 -2048 0
-1595 -1689 -1954 -2046 -2064 0
-1684 -1859 -1961 -2048 0
-1697 -1954 -2046 -2064 0
-1684 -1841 -1859 -1973 -2048 0
-1837 -1912 -1954 -2046 -2064 0
-1684 -1859 -1911 -1973 -2048 0
-1848 -1912 -1954 -2046 -2064 0
-1684 -1841 -1859 -1886 -1954 -1973 -2048 0
-1595 -1689 -1837 -1912 -1954 -2046 -2064 0
-1684 -1859 -1961 -1973 -2026 -2048 0
-1697 -1754 -1912 -1954 -2046 -2064 0
-1684 -1841 -1859 -1961 -1973 -2048 0
-1697 -1837 -1912 -1954 -2046 -2064 0
-1684 -1859 -2032 -2048 0
-1765 -1954 -2046 -2064 0
-1668 -1739 -1829 -1859 -1933 0
-1719 -1783 -1860 -2026 -2064 0
-1684 -1859 -1933 0
-2026 -2046 -2064 0
-1684 -1859 -1933 -1954 -2064 0
-1572 -1689 -2026 -2046 -2064 0
-1684 -1859 -1933 -1961 0
-1697 -2026 -2046 -2064 0
-1684 -1739 -1859 -1933 0
-1719 -2026 -2046 -2064 0
-1684 -1818 -1826 -1859 -1933 0
-1776 -1779 -2026 -2046 -2064 0
-1684 -1826 -1859 -1886 -1933 0
-1595 -1776 -2026 -2046 -2064 0
-1684 -1859 -1933 -1987 0
-1920 -2026 -2046 -2064 0
-1668 -1739 -1829 -1859 -1934 0
-1719 -1783 -1860 -2016 -2064 0
-1684 -1859 -1934 0
-2016 -2046 -2064 0
-1684 -1859 -1934 -1954 -2064 0
-1572 -1689 -2016 -2046 -2064 0
-1684 -1859 -1934 -1961 0
-1697 -2016 -2046 -2064 0
-1684 -1739 -1859 -1934 0
-1719 -2016 -2046 -2064 0
-1684 -1818 -1826 -1859 -1934 0
-1776 -1779 -2016 -2046 -2064 0
-1684 -1826 -1859 -1886 -1934 0
-1595 -1776 -2016 -2046 -2064 0
-1684 -2096 0
-1827 -2046 0
-1684 -1886 -1954 -2096 0
-1595 -1689 -1827 -2046 0
-1684 -1961 -2096 0
-1697 -1827 -2046 0
-1668 -1739 -1829 -1854 0
-1719 -1783 -1860 -1987 0
-1684 -1886 -1954 0
-1595 -1689 -2046 0
-1684 -1841 -1973 0
-1837 -1912 -2046 0
-1684 -1911 -1973 0
-1848 -1912 -2046 0
-1684 -1841 -1886 -1954 -1973 0
-1595 -1689 -1837 -1912 -2046 0
-1684 -1961 -1973 -2026 0
-1697 -1754 -1912 -2046 0
-1684 -1841 -1961 -1973 0
-1697 -1837 -1912 -2046 0
-1684 -2032 0
-1765 -2046 0
-1684 -1987 0
-1920 -2046 0
-1684 -1854 -1987 0
-1920 -1987 -2046 0
-1686 -1698 -1854 -1987 0
-1920 -1987 -2041 -2054 0
-1684 -1841 -1933 0
-1837 -2026 -2046 0
-1684 -1841 -1933 -2064 -2110 0
-1572 -1667 -1837 -2026 -2046 0
-1684 -1841 -1933 -2152 -2160 0
-1732 -1735 -1837 -2026 -2046 0
-1684 -1841 -1933 -2064 -2160 0
-1572 -1732 -1837 -2026 -2046 0
-1668 -1739 -1829 -1933 -2041 0
-1719 -1783 -1815 -1860 -2026 0
-1684 -1933 -2041 0
-1815 -2026 -2046 0
-1684 -1933 -1954 -2041 -2064 0
-1572 -1689 -1815 -2026 -2046 0
-1684 -1933 -1961 -2041 0
-1697 -1815 -2026 -2046 0
-1684 -1739 -1933 -2041 0
-1719 -1815 -2026 -2046 0
-1684 -1818 -1826 -1933 -2041 0
-1776 -1779 -1815 -2026 -2046 0
-1684 -1826 -1886 -1933 -2041 0
-1595 -1776 -1815 -2026 -2046 0
-1684 -1841 -1933 -2096 0
-1827 -1837 -2026 -2046 0
-1684 -1841 -1933 -2064 -2089 0
-1572 -1826 -1837 -2026 -2046 0
-1668 -1739 -1829 -2054 0
-1719 -1783 -1860 -1965 0
-1684 -2054 0
-1965 -2046 0
-1684 -1954 -2054 -2064 0
-1572 -1689 -1965 -2046 0
-1684 -1961 -2054 0
-1697 -1965 -2046 0
-1684 -1739 -2054 0
-1719 -1965 -2046 0
-1684 -1818 -1826 -2054 0
-1776 -1779 -1965 -2046 0
-1684 -1826 -1886 -2054 0
-1595 -1776 -1965 -2046 0
-1668 -1739 -1829 -1854 -2054 0
-1719 -1783 -1860 -1965 -1987 0
-1684 -2054 -2096 0
-1827 -1965 -2046 0
-1684 -1886 -1954 -2054 -2096 0
-1595 -1689 -1827 -1965 -2046 0
-1684 -1961 -2054 -2096 0
-1697 -1827 -1965 -2046 0
-1684 -1841 -1976 -2054 0
-1837 -1911 -1965 -2046 0
-1684 -1841 -1976 -2054 -2064 -2110 0
-1572 -1667 -1837 -1911 -1965 -2046 0
-1684 -1841 -1976 -2054 -2152 -2160 0
-1732 -1735 -1837 -1911 -1965 -2046 0
-1684 -1841 -1976 -2054 -2064 -2160 0
-1572 -1732 -1837 -1911 -1965 -2046 0
-1668 -1739 -1829 -1976 -2041 -2054 0
-1719 -1783 -1815 -1860 -1911 -1965 0
-1684 -1976 -2041 -2054 0
-1815 -1911 -1965 -2046 0
-1684 -1954 -1976 -2041 -2054 -2064 0
-1572 -1689 -1815 -1911 -1965 -2046 0
-1684 -1961 -1976 -2041 -2054 0
-1697 -1815 -1911 -1965 -2046 0
-1684 -1739 -1976 -2041 -2054 0
-1719 -1815 -1911 -1965 -2046 0
-1684 -1818 -1826 -1976 -2041 -2054 0
-1776 -1779 -1815 -1911 -1965 -2046 0
-1684 -1826 -1886 -1976 -2041 -2054 0
-1595 -1776 -1815 -1911 -1965 -2046 0
-1684 -1841 -1976 -2054 -2096 0
-1827 -1837 -1911 -1965 -2046 0
-1684 -1841 -1976 -2054 -2064 -2089 0
-1572 -1826 -1837 -1911 -1965 -2046 0
-1684 -1961 -1987 -2026 -2041 -2054 0
-1697 -1754 -1815 -1920 -1965 -2046 0
-1684 -1841 -1987 -2041 -2054 0
-1815 -1837 -1920 -1965 -2046 0
-1684 -1841 -1886 -1954 -1987 -2041 -2054 0
-1595 -1689 -1815 -1837 -1920 -1965 -2046 0
-1684 -1841 -1961 -1987 -2041 -2054 0
-1697 -1815 -1837 -1920 -1965 -2046 0
-1684 -1911 -1987 -2041 -2054 0
-1815 -1848 -1920 -1965 -2046 0
-1684 -1886 -1954 -2054 0
-1595 -1689 -1965 -2046 0
-1684 -1841 -1973 -2054 0
-1837 -1912 -1965 -2046 0
-1684 -1911 -1973 -2054 0
-1848 -1912 -1965 -2046 0
-1684 -1841 -1886 -1954 -1973 -2054 0
-1595 -1689 -1837 -1912 -1965 -2046 0
-1684 -1961 -1973 -2026 -2054 0
-1697 -1754 -1912 -1965 -2046 0
-1684 -1841 -1961 -1973 -2054 0
-1697 -1837 -1912 -1965 -2046 0
-1684 -2032 -2054 0
-1765 -1965 -2046 0
-1942 -1973 -2054 0
-1912 -1965 -2032 0
-1886 -1942 -1954 -1973 -2054 0
-1595 -1689 -1912 -1965 -2032 0
-1942 -1961 -1973 -2054 0
-1697 -1912 -1965 -2032 0
-1711 -1712 -1942 -1973 -2054 0
-1912 -1965 -2032 -2150 -2160 0
-1711 -1712 -1886 -1942 -1954 -1973 -2054 0
-1595 -1689 -1912 -1965 -2032 -2150 -2160 0
-1711 -1712 -1942 -1961 -1973 -2054 0
-1697 -1912 -1965 -2032 -2150 -2160 0
-1934 -1987 -2054 0
-1920 -1965 -2016 0
-1886 -1934 -1954 -1987 -2054 0
-1595 -1689 -1920 -1965 -2016 0
-1934 -1961 -1987 -2054 0
-1697 -1920 -1965 -2016 0
-1711 -1712 -1934 -1987 -2054 0
-1920 -1965 -2016 -2150 -2160 0
-1711 -1712 -1886 -1934 -1954 -1987 -2054 0
-1595 -1689 -1920 -1965 -2016 -2150 -2160 0
-1711 -1712 -1934 -1961 -1987 -2054 0
-1697 -1920 -1965 -2016 -2150 -2160 0
-1684 -1841 -1976 0
-1837 -1911 -2046 0
-1684 -1886 -1973 0
-1595 -1912 -2046 0
-1684 -2016 -2064 0
-1572 -1751 -2046 0
-1684 -2016 -2026 0
-1751 -1754 -2046 0
-1684 -1911 -1961 -2016 0
-1697 -1751 -1848 -2046 0
-1684 -1886 -2016 0
-1595 -1751 -2046 0
-1840 -1886 -2016 0
-1595 -1751 -1979 0
-1841 -1886 -2016 0
-1595 -1751 -1837 0
-1684 -1886 -1918 -2016 0
-1595 -1751 -1849 -2046 0
-1676 -1841 -1886 -2016 0
-1595 -1751 -1837 -1876 0
-1684 -1961 -2032 0
-1697 -1765 -2046 0
-1840 -1961 -2032 0
-1697 -1765 -1979 0
-1841 -1961 -2032 0
-1697 -1765 -1837 0
-1684 -1918 -1961 -2032 0
-1697 -1765 -1849 -2046 0
-1676 -1841 -1961 -2032 0
-1697 -1765 -1837 -1876 0
-1684 -1886 -1911 -2032 0
-1595 -1765 -1848 -2046 0
-1684 -2125 0
-1674 -2046 0
-1684 -1886 -1954 -2125 0
-1595 -1674 -1689 -2046 0
-1684 -1961 -2125 0
-1674 -1697 -2046 0
-1684 -2041 -2089 0
-1815 -1826 -2046 0
-1684 -2016 -2110 0
-1667 -1751 -2046 0
-1684 -2064 -2110 0
-1572 -1667 -2046 0
-1684 -1841 -1976 -2064 -2110 0
-1572 -1667 -1837 -1911 -2046 0
-1684 -1841 -1973 -2064 -2110 0
-1572 -1667 -1837 -1912 -2046 0
-1684 -2041 -2064 0
-1572 -1815 -2046 0
-1684 -2166 0
-1743 -2046 0
-1684 -1841 -1976 -2166 0
-1743 -1837 -1911 -2046 0
-1684 -1841 -1973 -2166 0
-1743 -1837 -1912 -2046 0
-1684 -1886 -1954 -2166 0
-1595 -1689 -1743 -2046 0
-1684 -1961 -2166 0
-1697 -1743 -2046 0
-1684 -1886 -1973 -2166 0
-1595 -1743 -1912 -2046 0
-1684 -2016 -2064 -2166 0
-1572 -1743 -1751 -2046 0
-1684 -2016 -2026 -2166 0
-1743 -1751 -1754 -2046 0
-1684 -1911 -1961 -2016 -2166 0
-1697 -1743 -1751 -1848 -2046 0
-1684 -1886 -2016 -2166 0
-1595 -1743 -1751 -2046 0
-1840 -1886 -2016 -2166 0
-1595 -1743 -1751 -1979 0
-1841 -1886 -2016 -2166 0
-1595 -1743 -1751 -1837 0
-1684 -1886 -1918 -2016 -2166 0
-1595 -1743 -1751 -1849 -2046 0
-1676 -1841 -1886 -2016 -2166 0
-1595 -1743 -1751 -1837 -1876 0
-1684 -1961 -2032 -2166 0
-1697 -1743 -1765 -2046 0
-1840 -1961 -2032 -2166 0
-1697 -1743 -1765 -1979 0
-1841 -1961 -2032 -2166 0
-1697 -1743 -1765 -1837 0
-1684 -1918 -1961 -2032 -2166 0
-1697 -1743 -1765 -1849 -2046 0
-1676 -1841 -1961 -2032 -2166 0
-1697 -1743 -1765 -1837 -1876 0
-1684 -1886 -1911 -2032 -2166 0
-1595 -1743 -1765 -1848 -2046 0
-1684 -2125 -2166 0
-1674 -1743 -2046 0
-1684 -1886 -1954 -2125 -2166 0
-1595 -1674 -1689 -1743 -2046 0
-1684 -1961 -2125 -2166 0
-1674 -1697 -1743 -2046 0
-1684 -2041 -2064 -2166 0
-1572 -1743 -1815 -2046 0
-1684 -2096 -2166 0
-1743 -1827 -2046 0
-1684 -1886 -1954 -2096 -2166 0
-1595 -1689 -1743 -1827 -2046 0
-1684 -1961 -2096 -2166 0
-1697 -1743 -1827 -2046 0
-1684 -2016 -2089 -2166 0
-1743 -1751 -1826 -2046 0
-1684 -2064 -2089 -2166 0
-1572 -1743 -1826 -2046 0
-1684 -1841 -1976 -2064 -2089 -2166 0
-1572 -1743 -1826 -1837 -1911 -2046 0
-1684 -1841 -1973 -2064 -2089 -2166 0
-1572 -1743 -1826 -1837 -1912 -2046 0
-1684 -2041 -2110 -2166 0
-1667 -1743 -1815 -2046 0
-1684 -2041 -2160 0
-1732 -1815 -2046 0
-1684 -2032 -2041 -2160 0
-1732 -1765 -1815 -2046 0
-1684 -1841 -1976 -2125 0
-1674 -1837 -1911 -2046 0
-1684 -1841 -1973 -2125 0
-1674 -1837 -1912 -2046 0
-1684 -2032 -2125 0
-1674 -1765 -2046 0
-1684 -1841 -1973 -2032 -2125 0
-1674 -1765 -1837 -1912 -2046 0
-1684 -2041 -2110 0
-1667 -1815 -2046 0
-1595 -1791 -2098 -2107 -2163 0
-1595 -1791 -2090 -2121 -2163 0
-1668 -1739 -1832 -2037 -2096 0
-1719 -1787 -1827 -1860 -1886 0
-1676 -1739 -1816 -2037 -2096 0
-1719 -1773 -1827 -1876 -1886 0
-1595 -1664 -1941 -1965 -2029 -2054 0
-1595 -1791 -2098 -2107 -2166 0
-1595 -1791 -2090 -2121 -2166 0
-1595 -1791 -2054 -2098 -2107 0
-1595 -1791 -2054 -2090 0
-1595 -1791 -2054 -2090 -2121 0
-1595 -1791 -2040 -2121 -2166 0
-1698 -1761 -1863 -1965 -2029 -2037 0
-1698 -1761 -1886 -1941 -2015 -2054 0
-1668 -1743 -1832 -2037 -2096 0
-1720 -1787 -1827 -1860 -1886 0
-1676 -1743 -1816 -2037 -2096 0
-1720 -1773 -1827 -1876 -1886 0
-1668 -1832 -1965 -2037 -2096 0
-1698 -1787 -1827 -1860 -1886 0
-1816 -1965 -2037 -2096 0
-1698 -1773 -1827 -1886 0
-1676 -1816 -1965 -2037 -2096 0
-1698 -1773 -1827 -1876 -1886 0
-1676 -1743 -1957 -2037 -2096 0
-1682 -1720 -1827 -1876 -1886 0
-1595 -1791 -2098 -2117 -2150 0
-1595 -1791 -2064 -2090 -2150 0
-1675 -1729 -1832 -2037 -2096 0
-1712 -1787 -1827 -1873 -1886 0
-1572 -1729 -1816 -2037 -2096 0
-1712 -1773 -1827 -1859 -1886 0
-1595 -1791 -2027 -2064 0
-1595 -1791 -2064 -2090 -2149 0
-1595 -1791 -2027 -2038 -2048 -2064 0
-1686 -1720 -1873 -2027 -2064 0
-1572 -1769 -2037 -2096 0
-1827 -1859 -1886 -1940 0
-1572 -1642 -1816 -2037 -2096 0
-1618 -1773 -1827 -1859 -1886 0
-1572 -1769 -1951 -1954 -2037 -2096 0
-1689 -1690 -1827 -1859 -1886 -1940 0
-1572 -1769 -2041 -2117 -2166 0
-1675 -1743 -1815 -1859 -1940 0
-1595 -1791 -2027 -2107 0
-1595 -1791 -2090 -2107 -2149 0
-1595 -1791 -2027 -2038 -2048 -2107 0
-1686 -1720 -1873 -2027 -2107 0
-1668 -1769 -2037 -2096 0
-1827 -1860 -1886 -1940 0
-1642 -1668 -1816 -2037 -2096 0
-1618 -1773 -1827 -1860 -1886 0
-1668 -1769 -1951 -1954 -2037 -2096 0
-1689 -1690 -1827 -1860 -1886 -1940 0
-1668 -1769 -2041 -2117 -2166 0
-1675 -1743 -1815 -1860 -1940 0
-1595 -1791 -2090 -2107 -2150 0
-1668 -1729 -1816 -2037 -2096 0
-1712 -1773 -1827 -1860 -1886 0
-1727 -2110 -2165 0
-1727 -1918 -2110 -2165 0
-1572 -1832 -1965 -2110 -2165 0
-1675 -1769 -1818 -1965 -2110 -2165 0
-1664 -1675 -1832 -1965 -2110 -2165 0
-1572 -1769 -2110 -2165 0
-1572 -1769 -2157 0
-1572 -1769 -2027 -2157 0
-1572 -1769 -1965 -2110 -2165 0
-1706 -2027 -2107 0
-1706 -2040 -2097 0
-1706 -2027 -2054 -2107 0
-1706 -1727 0
-1667 -1706 -1742 0
-1696 -1706 -1727 0
-1667 -1696 -1706 -1742 0
-1706 -1840 -1848 -2027 -2107 0
-1706 -1941 -2027 -2107 0
-1667 -1706 -1740 0
-1716 -1870 -2158 0
-1667 -1706 -1740 -1849 0
-1716 -1870 -1991 -2158 0
-1667 -1698 -1740 -1787 -1859 0
-1716 -1870 -2054 -2064 -2098 0
-1667 -1698 -1740 -1779 -1873 -1940 0
-1716 -1870 -2027 -2054 -2082 -2117 0
-1667 -1698 -1740 -1787 -1863 -1873 0
-1716 -1870 -2015 -2054 -2098 -2117 0
-1667 -1740 -1859 -1940 0
-1716 -1870 -2027 -2064 0
-1737 -1859 -1940 0
-1709 -2027 -2064 0
-1737 -1769 -1859 -1940 0
-1709 -1940 -2027 -2064 0
-1667 -1698 -1740 -1859 -1940 0
-1716 -1870 -2027 -2054 -2064 0
-1668 -1769 -2158 0
-1727 -1860 -1940 0
-1829 -1957 -2158 0
-1682 -1727 -1783 0
-1668 -1769 -1965 -2158 0
-1698 -1727 -1860 -1940 0
-1706 -2158 0
-1727 -2158 0
-1717 -1870 -2158 0
-1727 -2110 -2162 0
-1706 -2049 -2158 0
-1727 -1969 -2158 0
-1717 -1870 -2049 -2158 0
-1727 -1969 -2110 -2162 0
-1668 -1769 -1976 -1979 -2158 0
-1727 -1860 -1904 -1911 -1940 0
-1668 -1769 -2029 -2158 0
-1727 -1761 -1860 -1940 0
-1668 -1769 -1969 -2157 0
-1668 -1769 -2157 0
-1668 -1769 -2027 -2157 0
-1667 -1697 -1740 -1787 -1860 0
-1674 -1697 -1737 -1787 -1860 0
-1696 -1737 -1860 -1940 0
-1709 -2027 -2049 -2107 0
-1737 -1860 -1940 0
-1709 -2027 -2107 0
-1737 -1769 -1860 -1940 0
-1709 -1940 -2027 -2107 0
-1716 -1870 -2051 -2098 -2107 0
-1668 -1832 -1961 -2110 -2165 0
-1709 -1871 -2051 -2098 -2107 0
-1668 -1832 -1961 -2125 -2157 0
-1667 -1712 -1740 -1773 -1860 0
-1716 -1870 -2090 -2107 -2150 0
-1668 -1729 -1816 -2110 -2165 0
-1667 -1712 -1740 -1773 -1859 0
-1716 -1870 -2064 -2090 -2150 0
-1572 -1729 -1816 -2110 -2165 0
-1667 -1698 -1740 -1787 -1860 0
-1698 -1761 -1863 -1886 -2015 -2038 0
-1716 -1870 -2054 -2098 -2107 0
-1668 -1832 -1965 -2110 -2165 0
-1595 -1664 -1941 -1951 -2015 -2054 0
-1664 -1690 -1863 -1965 -2029 -2037 0
-1829 -1957 0
-1829 -1859 -1957 -2048 0
-1829 -1957 -2054 0
-1829 -1957 -2151 -2157 0
-1829 -1957 -1983 0
-1829 -1859 -1933 -1957 -1983 0
-1829 -1957 -2089 -2157 0
-1829 -1957 -2096 0
-1829 -1957 -2054 -2096 0
-1829 -1957 -2110 -2157 0
-1829 -1957 -2110 -2151 0
-2157 0
-1954 -1957 -2157 0
-2027 -2157 0
-2016 -2121 0
-1908 -1954 -2157 0
-1841 -2026 -2157 0
-1841 -1911 -2157 0
-1841 -1954 -2157 0
-1829 -2157 0
-1829 -2027 -2157 0
-1829 -2016 -2121 0
-1737 0
-1737 -1873 0
-1737 -1859 -1870 0
-1704 -1711 -1737 0
-1711 -1737 -1859 0
-1737 -1776 -1859 0
-1737 -2054 0
-1737 -1783 0
-1737 -1926 -1933 0
-1737 -1859 -1933 0
-1737 -1983 -2054 -2096 0
-1737 -1854 0
-1737 -1854 -1873 0
-1689 -1737 -1841 0
-1689 -1737 -1841 -2054 0
-1689 -1737 -1841 -1873 0
-1689 -1737 -1841 -1942 0
-1696 -1737 0
-1696 -1737 -1873 0
-1696 -1737 -1859 -1870 0
-1696 -1704 -1711 -1737 0
-1696 -1711 -1737 -1859 0
-1696 -1737 -1776 -1859 0
-1696 -1737 -2054 0
-1696 -1737 -1783 0
-1696 -1737 -1926 -1933 0
-1696 -1737 -1859 -1933 0
-1696 -1737 -1983 -2054 -2096 0
-1696 -1737 -1854 0
-1696 -1737 -1854 -2054 0
-1737 -1761 -1854 -1918 0
-1737 -1761 -1854 -1873 -1918 0
-1737 -1754 -1841 -1854 0
-1737 -1754 -1841 -1854 -1873 0
-1572 -1826 -2157 0
-1572 -1826 -1954 -1957 -2157 0
-1572 -1667 -2157 0
-1572 -1667 -1954 -1957 -2157 0
-1675 -2157 0
-1675 -2027 -2157 0
-1675 -2016 -2121 0
-1675 -1908 -1954 -2157 0
-1675 -1841 -2026 -2157 0
-1675 -1841 -1911 -2157 0
-1675 -1841 -1954 -2157 0
-1572 -1689 -2054 -2090 0
-1572 -1689 -2054 -2090 -2121 0
-1572 -1696 -1848 -2157 0
-1572 -1696 -1848 -2027 -2157 0
-1572 -1696 -1848 -2016 -2121 0
-1572 -1696 -1854 -1983 0
-1572 -1696 -1854 -1961 -1983 0
-1572 -1664 -2157 0
-1572 -1664 -2027 -2157 0
-1572 -1664 -2016 -2121 0
-1572 -1664 -1908 -1954 -2157 0
-1572 -1664 -1841 -2026 -2157 0
-1572 -1664 -1841 -1911 -2157 0
-1572 -1664 -1841 -1954 -2157 0
-1572 -1754 -2157 0
-1572 -1754 -2027 -2157 0
-1572 -1754 -2016 -2121 0
-1572 -1754 -1840 -1908 -2016 -2121 0
-1572 -1754 -1840 -1908 -2027 -2157 0
-1675 -1954 -1957 -2157 0
-1664 -1675 -1826 -2157 0
-1664 -1675 -1826 -1954 -1957 -2157 0
-1667 -1740 0
-1667 -1740 -1873 0
-1667 -1740 -2054 0
-1667 -1740 -1783 0
-1667 -1740 -1926 -1933 0
-1667 -1740 -1859 -1933 0
-1667 -1740 -1983 -2054 -2096 0
-1841 -1908 -2016 -2121 0
-1841 -1908 -2027 -2157 0
-2054 -2090 0
-2054 -2090 -2121 0
-1664 -1754 -1908 -1954 -2157 0
-1667 -1740 -1854 0
-1667 -1740 -1854 -1873 0
-1840 -2026 -2157 0
-1840 -1911 -2157 0
-1840 -1954 -2157 0
-1840 -1908 -2016 -2121 0
-1840 -1908 -2027 -2157 0
-1840 -1841 -2157 0
-1840 -1841 -2016 -2121 0
-1840 -1841 -2027 -2157 0
-1667 -1740 -1859 -1870 0
-1667 -1704 -1711 -1740 0
-1667 -1711 -1740 -1859 0
-1667 -1740 -1776 -1859 0
-1686 -1754 -2157 0
-1686 -1754 -2027 -2157 0
-1686 -1754 -2016 -2121 0
-1690 -1776 -2054 -2090 0
-1690 -1776 -2054 -2090 -2121 0
-1686 -1690 -2054 -2090 0
-1686 -1690 -2054 -2090 -2121 0
-1690 -1848 -2157 0
-1690 -1848 -2027 -2157 0
-1690 -1848 -2016 -2121 0
-1690 -1854 -1983 0
-1690 -1854 -1961 -1983 0
-1689 -1690 -1908 -1954 -2157 0
-1689 -1690 -2157 0
-1689 -1690 -2027 -2157 0
-1689 -1690 -2016 -2121 0
-1667 -1689 -1690 -1740 0
-1667 -1689 -1690 -1740 -1873 0
-1667 -1689 -1690 -1740 -2054 0
-1667 -1689 -1690 -1740 -1783 0
-1667 -1689 -1690 -1740 -1926 -1933 0
-1667 -1689 -1690 -1740 -1859 -1933 0
-1667 -1689 -1690 -1740 -1983 -2054 -2096 0
-1689 -1690 -1841 -1908 -2016 -2121 0
-1689 -1690 -1841 -1908 -2027 -2157 0
-1664 -1690 -1911 -1983 0
-1664 -1690 -1961 -1983 -2026 0
-1690 -1761 -1848 -1908 -1954 -2157 0
-1690 -1761 -1854 0
-1690 -1761 -1854 -2054 0
-1690 -1761 -1854 -1961 0
-1690 -1761 -1854 -1961 -2054 0
-1690 -1754 -2157 0
-1690 -1754 -2027 -2157 0
-1690 -1754 -2016 -2121 0
-1667 -1690 -1740 -1754 -1854 0
-1667 -1690 -1740 -1754 -1854 -2054 0
-1667 -1696 -1740 0
-1908 -1942 -2054 0
-1908 -1942 -2054 -2121 0
-1667 -1696 -1740 -1873 0
-1873 -1908 -1942 0
-1873 -1908 -1942 -2121 0
-1667 -1696 -1740 -1859 -1870 0
-1667 -1720 -1740 0
-1667 -1696 -1720 -1740 0
-1720 -2054 -2090 0
-1720 -2054 -2090 -2121 0
-1720 -1908 -1942 -2054 0
-1720 -1908 -1942 -2054 -2121 0
-1667 -1720 -1740 -1873 0
-1667 -1720 -1740 -1854 -1873 0
-1667 -1720 -1740 -1776 -1859 0
-1667 -1696 -1720 -1740 -1776 -1859 0
-1720 -1783 -1859 0
-1720 -1783 -1859 -1961 0
-1720 -1783 -1859 -2121 0
-1667 -1720 -1740 -1783 -1841 -1859 0
-1720 -1783 -1859 -1918 0
-1720 -1783 -1859 -1918 -1961 0
-1720 -1783 -1815 -1859 -1911 -1961 0
-1720 -1783 -1859 -2027 0
-1720 -1783 -1859 -1961 -2027 0
-1720 -1783 -1859 -2027 -2121 0
-1720 -1783 -1815 -1859 -2026 0
-1720 -1783 -1859 -1983 0
-1720 -1783 -1859 -1983 -2121 0
-1686 -1720 -1873 0
-1686 -1720 -1873 -1961 0
-1686 -1720 -1873 -2121 0
-1667 -1686 -1720 -1740 -1841 -1873 0
-1686 -1720 -1873 -1918 0
-1686 -1720 -1873 -1918 -1961 0
-1686 -1720 -1815 -1873 -1911 -1961 0
-1686 -1720 -1873 -2027 0
-1686 -1720 -1873 -1961 -2027 0
-1686 -1720 -1873 -2027 -2121 0
-1686 -1720 -1815 -1873 -2026 0
-1686 -1720 -1873 -1983 0
-1686 -1720 -1873 -1983 -2121 0
-1682 -1783 0
-2040 -2097 0
-1682 -1783 -1954 -2064 0
-1572 -1689 -2040 -2097 0
-1682 -1783 -1965 0
-1698 -2040 -2097 0
-1682 -1733 -1737 -1783 0
-1709 -1713 -2040 -2097 0
-1682 -1783 -1919 0
-1851 -2040 -2097 0
-1682 -1783 -1919 -2026 -2064 0
-1572 -1754 -1851 -2040 -2097 0
-1682 -1737 -1783 -1826 0
-1709 -1776 -2040 -2097 0
-1682 -1783 -1827 0
-1791 -2040 -2097 0
-1682 -1783 -1827 -1965 0
-1698 -1791 -2040 -2097 0
-1667 -1682 -1737 -1783 0
-1709 -1870 -2040 -2097 0
-1667 -1682 -1733 -1783 0
-1713 -1870 -2040 -2097 0
-1709 0
-1682 -1689 -1737 0
-1709 -2040 -2048 0
-1737 -1769 0
-1709 -1940 0
-1676 -1751 0
-1876 -1934 0
-1709 -1837 -2048 0
-1737 -1754 -1837 0
-1709 -1908 -1933 0
-1737 -1837 -1848 0
-1709 -1908 -1976 0
-1689 -1737 -1837 0
-1709 -1908 -2048 0
-1709 -2097 0
-1737 -1769 -1783 0
-1709 -1940 -2097 0
-1676 -1751 -1783 0
-1876 -1934 -2097 0
-1709 -2117 0
-1709 -2064 -2110 0
-1709 -2152 -2160 0
-1732 -1735 -2157 0
-1709 -2064 -2160 0
-1572 -1732 -2157 0
-1709 -2064 -2089 0
-1709 -1965 0
-1698 -2157 0
-1709 -2018 -2026 0
-1754 -1757 -2157 0
-1709 -2026 -2064 0
-1709 -1827 -1919 -1965 0
-1698 -1791 -1851 -2157 0
-1709 -1987 0
-1920 -2157 0
-1709 -1987 -2117 0
-1675 -1920 -2157 0
-1709 -1837 -1965 -2048 0
-1698 -1908 -1954 -2157 0
-1709 -1837 -2048 -2117 0
-1709 -1837 -2032 -2048 0
-1765 -1908 -1954 -2157 0
-1709 -2049 0
-1969 -2157 0
-1709 -2049 -2117 0
-1675 -1969 -2157 0
-1709 -2049 -2064 -2110 0
-1572 -1667 -1969 -2157 0
-1709 -2049 -2152 -2160 0
-1732 -1735 -1969 -2157 0
-1709 -2049 -2064 -2160 0
-1572 -1732 -1969 -2157 0
-1709 -2049 -2064 -2089 0
-1572 -1826 -1969 -2157 0
-1709 -1965 -2049 0
-1698 -1969 -2157 0
-1709 -2049 -2097 0
-1829 -1969 -2157 0
-1709 -2018 -2026 -2049 0
-1754 -1757 -1969 -2157 0
-1709 -2026 -2049 -2064 0
-1572 -1754 -1969 -2157 0
-1709 -1827 -1919 -1965 -2049 0
-1698 -1791 -1851 -1969 -2157 0
-1709 -1987 -2049 0
-1920 -1969 -2157 0
-1709 -1965 -1987 -2049 0
-1698 -1920 -1969 -2157 0
-1709 -1849 -1941 -1987 0
-1920 -1991 -2029 -2157 0
-1709 -1849 -1941 -1987 -2117 0
-1675 -1920 -1991 -2029 -2157 0
-1709 -1837 -1933 -1987 0
-1908 -1920 -2026 -2157 0
-1709 -1837 -1933 -1987 -2117 0
-1675 -1908 -1920 -2026 -2157 0
-1682 -1689 -1737 -1776 -1859 0
-1709 -2040 -2048 -2064 -2089 0
-1682 -1689 -1737 -1859 -1870 0
-1709 -2040 -2048 -2064 -2110 0
-1737 -1769 -1873 0
-1709 -1940 -2117 0
-1676 -1751 -1873 0
-1876 -1934 -2117 0
-1737 -1754 -1837 -1873 0
-1709 -1908 -1933 -2117 0
-1737 -1837 -1848 -1873 0
-1709 -1908 -1976 -2117 0
-1689 -1737 -1837 -1873 0
-1709 -1908 -2048 -2117 0
-1816 -1859 -1965 -2048 0
-1698 -1773 -1954 -2064 0
-1676 -1816 -1859 -1965 -2048 0
-1698 -1773 -1876 -1954 -2064 0
-1737 -1859 -1976 -2049 0
-1709 -1911 -1969 -2064 0
-1737 -1769 -1859 -1976 -2049 0
-1709 -1911 -1940 -1969 -2064 0
-1676 -1751 -1859 -1976 -2049 0
-1876 -1911 -1934 -1969 -2064 0
-1859 -1919 -1987 -2049 0
-1851 -1920 -1969 -2064 0
-1697 -1859 -1919 -1987 -2049 0
-1851 -1920 -1969 -2051 -2064 0
-1737 -1859 -1863 0
-1709 -2015 -2064 0
-1737 -1769 -1859 -1863 0
-1709 -1940 -2015 -2064 0
-1676 -1751 -1859 -1863 0
-1876 -1934 -2015 -2064 0
-1689 -1737 -1841 -1859 -1863 0
-1709 -1837 -2015 -2048 -2064 0
-1737 -1754 -1837 -1859 -1863 0
-1709 -1908 -1933 -2015 -2064 0
-1737 -1837 -1848 -1859 -1863 0
-1709 -1908 -1976 -2015 -2064 0
-1689 -1737 -1837 -1859 -1863 0
-1709 -1908 -2015 -2048 -2064 0
-1737 -1769 -1859 -1933 0
-1709 -1940 -2026 -2064 0
-1676 -1751 -1859 -1933 0
-1876 -1934 -2026 -2064 0
-1676 -1751 -1841 -1859 -1933 -1979 0
-1837 -1876 -1904 -1934 -2026 -2064 0
-1737 -1769 -1841 -1859 -1933 -1979 0
-1709 -1837 -1904 -1940 -2026 -2064 0
-1682 -1689 -1737 -1873 0
-1709 -2040 -2048 -2117 0
-1737 -1776 -1863 -1873 0
-1709 -2015 -2089 -2117 0
-1682 -1689 -1737 -1776 -1863 -1873 0
-1709 -2015 -2040 -2048 -2089 -2117 0
-1716 -1870 0
-2110 -2165 0
-1716 -1870 -2117 0
-1675 -2110 -2165 0
-1716 -1870 -1965 0
-1698 -2110 -2165 0
-1716 -1870 -2097 0
-1829 -2110 -2165 0
-1716 -1870 -2018 -2026 0
-1754 -1757 -2110 -2165 0
-1716 -1870 -2026 -2064 0
-1572 -1754 -2110 -2165 0
-1716 -1827 -1870 -1919 -1965 0
-1698 -1791 -1851 -2110 -2165 0
-1676 -1751 -1837 -1841 0
-1837 -1876 -1908 -1934 0
-1737 -1769 -1837 -1841 0
-1709 -1837 -1908 -1940 0
-1816 -1965 0
-1698 -1773 0
-1676 -1816 -1965 0
-1698 -1773 -1876 0
-1689 -1737 -1841 -1863 -1933 0
-1709 -1837 -2015 -2026 -2048 0
-1716 -1870 -1987 0
-1920 -2110 -2165 0
-1716 -1870 -1987 -2117 0
-1675 -1920 -2110 -2165 0
-1737 -1754 -1979 0
-1709 -1904 -1933 0
-1737 -1848 -1979 0
-1709 -1904 -1976 0
-1689 -1737 -1979 0
-1709 -1904 -2048 0
-1676 -1751 -1841 -1979 0
-1837 -1876 -1904 -1934 0
-1737 -1769 -1841 -1979 0
-1709 -1837 -1904 -1940 0
-1737 -1837 -1979 0
-1709 -1904 -1908 0
-1676 -1751 -1837 -1979 0
-1876 -1904 -1908 -1934 0
-1737 -1769 -1837 -1979 0
-1709 -1904 -1908 -1940 0
-1716 -1870 -2064 -2110 0
-1572 -1667 -2110 -2165 0
-1716 -1870 -2152 -2160 0
-1732 -1735 -2110 -2165 0
-1716 -1870 -2064 -2160 0
-1572 -1732 -2110 -2165 0
-1716 -1870 -2064 -2089 0
-1572 -1826 -2110 -2165 0
-1737 -1933 -2041 0
-1709 -1815 -2026 0
-1737 -1769 -1933 -2041 0
-1709 -1815 -1940 -2026 0
-1676 -1751 -1933 -2041 0
-1815 -1876 -1934 -2026 0
-1816 -1965 -2038 -2089 0
-1698 -1773 -1826 -1951 0
-1676 -1816 -1965 -2038 -2089 0
-1698 -1773 -1826 -1876 -1951 0
-1816 -1965 -2038 -2041 0
-1698 -1773 -1815 -1951 0
-1676 -1816 -1965 -2038 -2041 0
-1698 -1773 -1815 -1876 -1951 0
-1737 -1976 -2038 0
-1709 -1911 -1951 0
-1737 -1769 -1976 -2038 0
-1709 -1911 -1940 -1951 0
-1676 -1751 -1976 -2038 0
-1876 -1911 -1934 -1951 0
-1919 -1987 -2038 0
-1851 -1920 -1951 0
-1697 -1919 -1987 -2038 0
-1851 -1920 -1951 -2051 0
-1689 -1737 -1841 -2038 -2048 0
-1709 -1837 -1951 -1954 -2048 0
-1737 -2038 -2048 0
-1709 -1951 -1954 0
-1737 -1769 -2038 -2048 0
-1709 -1940 -1951 -1954 0
-1676 -1751 -2038 -2048 0
-1876 -1934 -1951 -1954 0
-1716 -1870 -2038 -2048 0
-1951 -1954 -2110 -2165 0
-1716 -1870 -2038 -2048 -2117 0
-1675 -1951 -1954 -2110 -2165 0
-1716 -1870 -1965 -2038 -2048 0
-1698 -1951 -1954 -2110 -2165 0
-1716 -1870 -2038 -2048 -2097 0
-1829 -1951 -1954 -2110 -2165 0
-1716 -1870 -2018 -2026 -2038 -2048 0
-1754 -1757 -1951 -1954 -2110 -2165 0
-1716 -1870 -2026 -2038 -2048 -2064 0
-1572 -1754 -1951 -1954 -2110 -2165 0
-1716 -1827 -1870 -1919 -1965 -2038 -2048 0
-1698 -1791 -1851 -1951 -1954 -2110 -2165 0
-1676 -1751 -1837 -1841 -2038 -2048 0
-1837 -1876 -1908 -1934 -1951 -1954 0
-1737 -1769 -1837 -1841 -2038 -2048 0
-1709 -1837 -1908 -1940 -1951 -1954 0
-1848 -1863 -1919 -2038 0
-1851 -1951 -1976 -2015 0
-1697 -1754 -1863 -1919 -2038 0
-1851 -1933 -1951 -2015 -2051 0
-1689 -1737 -1841 -1941 -1976 -2038 0
-1709 -1837 -1911 -1951 -2029 -2048 0
-1941 -1987 -2038 0
-1920 -1951 -2029 0
-1941 -1965 -1987 -2038 0
-1698 -1920 -1951 -2029 0
-1697 -1941 -1987 -2038 0
-1920 -1951 -2029 -2051 0
-1697 -1941 -1965 -1987 -2038 0
-1698 -1920 -1951 -2029 -2051 0
-1737 -1933 -2038 0
-1709 -1951 -2026 0
-1737 -1769 -1933 -2038 0
-1709 -1940 -1951 -2026 0
-1676 -1751 -1933 -2038 0
-1876 -1934 -1951 -2026 0
-1716 -1870 -1933 -1987 -2038 0
-1920 -1951 -2026 -2110 -2165 0
-1716 -1870 -1933 -1965 -1987 -2038 0
-1698 -1920 -1951 -2026 -2110 -2165 0
-1716 -1870 -2049 0
-1969 -2110 -2165 0
-1841 -1965 -2032 0
-1698 -1765 -1837 0
-1676 -1841 -1965 -2032 0
-1698 -1765 -1837 -1876 0
-1716 -1870 -2049 -2117 0
-1675 -1969 -2110 -2165 0
-1841 -2032 -2117 0
-1675 -1765 -1837 0
-1676 -1841 -2032 -2117 0
-1675 -1765 -1837 -1876 0
-1716 -1870 -2049 -2064 -2110 0
-1572 -1667 -1969 -2110 -2165 0
-1716 -1870 -2166 0
-1743 -2110 -2165 0
-1716 -1870 -2049 -2166 0
-1743 -1969 -2110 -2165 0
-1816 -1965 -2166 0
-1698 -1743 -1773 0
-1676 -1816 -1965 -2166 0
-1698 -1743 -1773 -1876 0
-1841 -1965 -2032 -2166 0
-1698 -1743 -1765 -1837 0
-1676 -1841 -1965 -2032 -2166 0
-1698 -1743 -1765 -1837 -1876 0
-1716 -1870 -2117 -2166 0
-1675 -1743 -2110 -2165 0
-1716 -1870 -1987 -2117 -2166 0
-1675 -1743 -1920 -2110 -2165 0
-1716 -1870 -2064 -2089 -2166 0
-1572 -1743 -1826 -2110 -2165 0
-1716 -1870 -2049 -2064 -2089 -2166 0
-1572 -1743 -1826 -1969 -2110 -2165 0
-2064 -2097 -2166 0
-1572 -1743 -1829 0
-1697 -2064 -2097 -2166 0
-1572 -1743 -1829 -2051 0
-1676 -2064 -2097 -2166 0
-1572 -1743 -1829 -1876 0
-1716 -1837 -1870 -2064 -2097 -2166 0
-1572 -1743 -1829 -1908 -2110 -2165 0
-1849 -2064 -2097 -2166 0
-1572 -1743 -1829 -1991 0
-1697 -1849 -2064 -2097 -2166 0
-1572 -1743 -1829 -1991 -2051 0
-1686 -1697 -1848 -2064 -2097 -2166 0
-1572 -1743 -1829 -1976 -2041 -2051 0
-1769 -2064 -2097 -2166 0
-1572 -1743 -1829 -1940 0
-1697 -1769 -2064 -2097 -2166 0
-1572 -1743 -1829 -1940 -2051 0
-1676 -1769 -2064 -2097 -2166 0
-1572 -1743 -1829 -1876 -1940 0
-1686 -1754 -2064 -2097 -2166 0
-1572 -1743 -1829 -1933 -2041 0
-1919 -2064 -2097 -2166 0
-1572 -1743 -1829 -1851 0
-1676 -1919 -2064 -2097 -2166 0
-1572 -1743 -1829 -1851 -1876 0
-2041 -2117 -2166 0
-1675 -1743 -1815 0
-1697 -2041 -2117 -2166 0
-1675 -1743 -1815 -2051 0
-1676 -2041 -2117 -2166 0
-1675 -1743 -1815 -1876 0
-1716 -1837 -1870 -2041 -2117 -2166 0
-1675 -1743 -1815 -1908 -2110 -2165 0
-1849 -2041 -2117 -2166 0
-1675 -1743 -1815 -1991 0
-1697 -1849 -2041 -2117 -2166 0
-1675 -1743 -1815 -1991 -2051 0
-1686 -1697 -1848 -2041 -2117 -2166 0
-1675 -1743 -1815 -1976 -2041 -2051 0
-1769 -2041 -2117 -2166 0
-1675 -1743 -1815 -1940 0
-1697 -1769 -2041 -2117 -2166 0
-1675 -1743 -1815 -1940 -2051 0
-1676 -1769 -2041 -2117 -2166 0
-1675 -1743 -1815 -1876 -1940 0
-1686 -1754 -2041 -2117 -2166 0
-1675 -1743 -1815 -1933 -2041 0
-1919 -2041 -2117 -2166 0
-1675 -1743 -1815 -1851 0
-1676 -1919 -2041 -2117 -2166 0
-1675 -1743 -1815 -1851 -1876 0
-1727 -1859 -1940 0
-1727 -2089 -2167 0
-1727 -1859 -1918 -1940 0
-1727 -1918 -2089 -2167 0
-1675 -1769 -1818 -1965 -2089 -2167 0
-1667 -1742 -1859 -1940 0
-1595 -1689 -1727 -1859 -1940 0
-1595 -1667 -1689 -1742 -1859 -1940 0
-1595 -1664 -1863 -1965 -2029 -2038 0
-1595 -1791 -2155 0
-1595 -1791 -2049 -2155 0
-1714 -1727 0
-1667 -1714 -1742 0
-1696 -1714 -1727 0
-1667 -1696 -1714 -1742 0
-1714 -1791 -2155 0
-1714 -1791 -2049 -2155 0
-1706 -2027 -2064 0
-1572 -1769 -2158 0
-1706 -1745 -1826 0
-1723 -1776 -2158 0
-1706 -1849 -2027 -2064 0
-1572 -1769 -1991 -2158 0
-1706 -1745 -1826 -1849 0
-1723 -1776 -1991 -2158 0
-1698 -1745 -1779 -1826 -1873 -1940 0
-1723 -1776 -2027 -2054 -2082 -2117 0
-1717 -1870 -2027 -2064 0
-1572 -1769 -2110 -2162 0
-1706 -2027 -2037 -2048 -2064 0
-1572 -1769 -1886 -1954 -2158 0
-1717 -1870 -2027 -2037 -2048 -2064 0
-1572 -1769 -1886 -1954 -2110 -2162 0
-1698 -1761 -1863 -1951 -2015 -2037 0
-1664 -1690 -1886 -1941 -2015 -2054 0
-1734 -2037 -2096 0
-1714 -1827 -1886 0
-1734 -1969 -2037 -2096 0
-1696 -1714 -1827 -1886 0
-1706 -2155 0
-1734 -2158 0
-1717 -1870 -2155 0
-1734 -2110 -2162 0
-1706 -2049 -2155 0
-1734 -1969 -2158 0
-1717 -1870 -2049 -2155 0
-1734 -1969 -2110 -2162 0
-1734 -2096 -2155 0
-1714 -1734 -1827 0
-1734 -1969 -2096 -2155 0
-1696 -1714 -1734 -1827 0
-1734 -1860 -1940 0
-1734 -2089 -2167 0
-1734 -1860 -1918 -1940 0
-1734 -1918 -2089 -2167 0
-1668 -1743 -1829 -1860 -1940 0
-1714 -2027 -2107 0
-1668 -1769 -2155 0
-1714 -1745 -1826 0
-1723 -1776 -2155 0
-1714 -1849 -2027 -2107 0
-1668 -1769 -1991 -2155 0
-1714 -1745 -1826 -1849 0
-1723 -1776 -1991 -2155 0
-1720 -1783 -1860 -2027 -2107 0
-1668 -1769 -2097 -2107 -2166 0
-1734 -1859 -1940 0
-1734 -1859 -1918 -1940 0
-1668 -1743 -1829 -1859 -1940 0
-1714 -2027 -2064 0
-1714 -1840 -1848 -2027 -2064 0
-1572 -1769 -2155 0
-1714 -1849 -2027 -2064 0
-1572 -1769 -1991 -2155 0
-1720 -1783 -1860 -2027 -2064 0
-1572 -1769 -2097 -2107 -2166 0
-1572 -1769 -1976 -1979 -2155 0
-1734 -1859 -1904 -1911 -1940 0
-1572 -1832 -1965 -2158 0
-1572 -1832 -1965 -2089 -2164 0
-1572 -1729 -1957 -2158 0
-1572 -1729 -1957 -2089 -2164 0
-1675 -1729 -1832 -2158 0
-1675 -1729 -1832 -2089 -2164 0
-1840 -1965 -2032 -2158 0
-1698 -1727 -1787 -1859 0
-1706 -2054 -2064 -2098 0
-1698 -1738 -1787 -1826 -1859 0
-1724 -1776 -2054 -2064 -2098 0
-1682 -1712 -1727 -1859 0
-1706 -2040 -2064 -2150 0
-1682 -1712 -1738 -1826 -1859 0
-1724 -1776 -2040 -2064 -2150 0
-1712 -1727 -1787 -1873 0
-1706 -2098 -2117 -2150 0
-1712 -1738 -1787 -1826 -1873 0
-1724 -1776 -2098 -2117 -2150 0
-1698 -1727 -1765 -1979 0
-1706 -1904 -1942 -2054 0
-1668 -1832 -1965 -2089 -2167 0
-1668 -1743 -1832 -2089 -2167 0
-1676 -1743 -1957 -2089 -2167 0
-1698 -1745 -1787 -1826 -1860 0
-1723 -1776 -2054 -2098 -2107 0
-1720 -1745 -1787 -1826 -1860 0
-1723 -1776 -2098 -2107 -2166 0
-1682 -1720 -1745 -1826 -1876 0
-1723 -1776 -2040 -2121 -2166 0
-1860 -1940 0
-1761 -1860 -1940 0
-1860 -1904 -1911 -1940 0
-1832 -1860 -1940 0
-1667 -1757 -1860 -1940 0
-1668 -1757 -1860 -1940 0
-1757 -1826 -1860 -1940 0
-1743 -1860 -1940 0
-1743 -1761 -1860 -1940 0
-1743 -1860 -1904 -1911 -1940 0
-1667 -1743 -1757 -1860 -1940 0
-2155 0
-1976 -1979 -2155 0
-1860 -1920 -1940 0
-1920 -1987 -2037 0
-1860 -1920 -1987 -2049 0
-1860 -1920 -1940 -2026 -2107 0
-1860 -1940 -1965 0
-1860 -1940 -1954 -2107 0
-1754 -1757 -2155 0
-1754 -1757 -1976 -1979 -2155 0
-1818 -1911 -2155 0
-1676 -1860 -1940 0
-1676 -1761 -1860 -1940 0
-1676 -1860 -1904 -1911 -1940 0
-1668 -1689 -2155 0
-1668 -1689 -2049 -2155 0
-1668 -1689 -1863 -1976 -2155 0
-1668 -1689 -1863 -1904 -2037 0
-1668 -1689 -1863 -1933 -2155 0
-1668 -1689 -1863 -2048 -2155 0
-1668 -1754 -2155 0
-1668 -1754 -1976 -1979 -2155 0
-1668 -1754 -1854 -1863 -2048 -2155 0
-1668 -1754 -1840 -1940 -2048 -2155 0
-1668 -1754 -1840 -1933 -2049 -2155 0
-1668 -1754 -1840 -1976 -2155 0
-1676 -2155 0
-1676 -1976 -1979 -2155 0
-1676 -1860 -1920 -1940 0
-1676 -1920 -1987 -2037 0
-1676 -1860 -1920 -1987 -2049 0
-1676 -1860 -1920 -1940 -2026 -2107 0
-1676 -1860 -1940 -1965 0
-1676 -1860 -1940 -1954 -2107 0
-1676 -1743 -1860 -1940 0
-1676 -1743 -1860 -1920 -1940 0
-1676 -1743 -1920 -1987 -2037 0
-1676 -1743 -1860 -1920 -1987 -2049 0
-1676 -1743 -1957 0
-1676 -1743 -1860 -1957 -2048 0
-1676 -1743 -1957 -2037 -2041 0
-1676 -1743 -1957 -2041 -2155 0
-1676 -1743 -1957 -2037 -2089 0
-1676 -1743 -1957 -2089 -2155 0
-1676 -1743 -1957 -2110 -2155 0
-1668 -1832 -1965 0
-1668 -1832 -1860 -1965 -2048 0
-1668 -1832 -1965 -2037 -2041 0
-1668 -1832 -1965 -2041 -2155 0
-1668 -1832 -1965 -2037 -2089 0
-1668 -1832 -1965 -2089 -2155 0
-1668 -1832 -1965 -2110 -2155 0
-1667 -1668 -1860 -1940 0
-1667 -1668 -1761 -1860 -1940 0
-1667 -1668 -1860 -1904 -1911 -1940 0
-1668 -1743 -1757 -1860 -1940 0
-1668 -1743 -1826 -1860 -1940 0
-1668 -1743 -1761 -1826 -1860 -1940 0
-1668 -1743 -1826 -1860 -1904 -1911 -1940 0
-1668 -1743 -1832 0
-1668 -1743 -1832 -1860 -2048 0
-1668 -1743 -1832 -2037 -2041 0
-1668 -1743 -1832 -2041 -2155 0
-1668 -1743 -1832 -2037 -2089 0
-1668 -1743 -1832 -2089 -2155 0
-1668 -1743 -1832 -2110 -2155 0
-1668 -1743 -1832 -1860 -1904 -1940 0
-1668 -1743 -1832 -1904 -1987 -2037 0
-1668 -1743 -1832 -1860 -1904 -1987 -2049 0
-1668 -1743 -1832 -2032 0
-1668 -1743 -1832 -1860 -2032 -2048 0
-1668 -1743 -1832 -2032 -2037 -2041 0
-1668 -1743 -1832 -2032 -2041 -2155 0
-1668 -1743 -1818 -1860 -1940 0
-1668 -1743 -1818 -1860 -1920 -1940 0
-1668 -1743 -1818 -1920 -1987 -2037 0
-1668 -1743 -1818 -1860 -1920 -1987 -2049 0
-1818 -1826 -1860 -1940 0
-1920 -2155 0
-2049 -2155 0
-1863 -1976 -2155 0
-1863 -1904 -2037 0
-1863 -1933 -2155 0
-1863 -2048 -2155 0
-1776 -1779 -2155 0
-1776 -1779 -2049 -2155 0
-1854 -1863 -2048 -2155 0
-1840 -2032 -2121 0
-1840 -1965 -2032 0
-1840 -1940 -2048 -2155 0
-1840 -1933 -2049 -2155 0
-1840 -1976 -2155 0
-1818 -1826 -1840 -2032 -2121 0
-1698 -1860 -1940 0
-1698 -1743 -1860 -1940 0
-1698 -1860 -1940 -1965 0
-1698 -1860 -1940 -1954 -2107 0
-1698 -2155 0
-1698 -1976 -1979 -2155 0
-1698 -1818 -1826 -1860 -1940 0
-1698 -1920 -2155 0
-1698 -1787 -1860 0
-1698 -1743 -1787 -1860 0
-1698 -1787 -1860 -1965 0
-1698 -1787 -1860 -1954 -2107 0
-1698 -1787 -1818 -1826 -1860 0
-1698 -2049 -2155 0
-1698 -1863 -1976 -2155 0
-1698 -1863 -1904 -2037 0
-1698 -1863 -1933 -2155 0
-1698 -1863 -2048 -2155 0
-1698 -1761 -1979 0
-1698 -1761 -1965 -1979 0
-1698 -1761 -1954 -1979 -2107 0
-1698 -1761 -1863 -1911 -2037 0
-1698 -1761 -1863 -1965 -2026 -2037 0
-1698 -1761 -1863 -1965 -2018 -2037 0
-1871 -2155 0
-1871 -2049 -2155 0
-1719 -1871 -2155 0
-1719 -1871 -2049 -2155 0
-1719 -1787 -1860 0
-1719 -1743 -1787 -1860 0
-1719 -1787 -1860 -1965 0
-1719 -1787 -1860 -1954 -2107 0
-1719 -1787 -1818 -1826 -1860 0
-1719 -1761 -1787 -1860 0
-1719 -1743 -1761 -1787 -1860 0
-1676 -1719 -1761 -1787 -1860 0
-1719 -2155 0
-1719 -2049 -2155 0
-2027 -2107 0
-1668 -1769 0
-1941 -2027 -2107 0
-1668 -1769 -2029 0
-1840 -1848 -2027 -2107 0
-1668 -1769 -1976 -1979 0
-1787 -2027 -2107 0
-1668 -1769 -2098 0
-1870 -1926 -2027 -2107 0
-1668 -1769 -2018 -2110 0
-1860 -1926 -2027 -2107 0
-1668 -1769 -2018 -2107 0
-1776 -1926 -2027 -2107 0
-1668 -1769 -2018 -2089 0
-1720 -2027 -2107 0
-1668 -1769 -2166 0
-1720 -1941 -2027 -2107 0
-1668 -1769 -2029 -2166 0
-1720 -1840 -1848 -2027 -2107 0
-1668 -1769 -1976 -1979 -2166 0
-1720 -1870 -1926 -2027 -2107 0
-1668 -1769 -2018 -2110 -2166 0
-1734 0
-1714 0
-1734 -1904 -1911 0
-1714 -1840 -1848 0
-1854 -2027 -2107 0
-1668 -1769 -1987 0
-1854 -1886 -1920 0
-1595 -1854 -1987 0
-1854 -1920 -1969 -2107 0
-1668 -1696 -1854 -1987 0
-1668 -1754 -1854 -2027 -2107 0
-1668 -1769 -1860 -1933 -1987 0
-1698 -2027 -2107 0
-1668 -1769 -2054 0
-1668 -1689 -2027 -2107 0
-1668 -1769 -1860 -2048 0
-1734 -1926 -1933 0
-1714 -2018 -2026 0
-1734 -1904 -1911 -1926 -1933 0
-1714 -1840 -1848 -2018 -2026 0
-1734 -1779 -1848 0
-1714 -1976 -2082 0
-1876 -2027 -2107 0
-1668 -1769 -2121 0
-1876 -1941 -2027 -2107 0
-1668 -1769 -2029 -2121 0
-1840 -1848 -1876 -2027 -2107 0
-1668 -1769 -1976 -1979 -2121 0
-1734 -1860 -2048 0
-1714 -1954 -2107 0
-1734 -1860 -1969 -2048 0
-1696 -1714 -1954 -2107 0
-1734 -1860 -1911 -2015 -2048 0
-1664 -1714 -1848 -1954 -2107 0
-1840 -1860 -1886 -2015 -2048 0
-1595 -1664 -1954 -1979 -2107 0
-1734 -1860 -2015 -2026 -2048 0
-1664 -1714 -1754 -1954 -2107 0
-1734 -1860 -1954 -2015 -2048 0
-1664 -1689 -1714 -1954 -2107 0
-1734 -1860 -1933 0
-1714 -2026 -2107 0
-1734 -1860 -1904 -1911 -1933 0
-1714 -1840 -1848 -2026 -2107 0
-1734 -1860 -1933 -1954 -1987 -2015 0
-1664 -1689 -1714 -1920 -2026 -2107 0
-1734 -1860 -1933 -1954 -1979 -2027 0
-1689 -1714 -1769 -1904 -2026 -2107 0
-1734 -1860 -1933 -1969 -1979 -2026 0
-1696 -1714 -1754 -1904 -2026 -2107 0
-1734 -1860 -1911 -1933 -1979 0
-1714 -1848 -1904 -2026 -2107 0
-1734 -1876 0
-1714 -2121 0
-1734 -1876 -1904 -1911 0
-1714 -1840 -1848 -2121 0
-1854 -1876 -2027 -2107 0
-1668 -1769 -1987 -2121 0
-1854 -1876 -1886 -1920 0
-1595 -1854 -1987 -2121 0
-1854 -1876 -1920 -1969 -2107 0
-1668 -1696 -1854 -1987 -2121 0
-1668 -1754 -1854 -1876 -2027 -2107 0
-1668 -1769 -1860 -1933 -1987 -2121 0
-1698 -1876 -2027 -2107 0
-1668 -1769 -2054 -2121 0
-1668 -1689 -1876 -2027 -2107 0
-1668 -1769 -1860 -2048 -2121 0
-1720 -1876 -2027 -2107 0
-1668 -1769 -2121 -2166 0
-1720 -1854 -1876 -2027 -2107 0
-1668 -1769 -1987 -2121 -2166 0
-1720 -1854 -1876 -1886 -1920 0
-1595 -1854 -1987 -2121 -2166 0
-1720 -1854 -1876 -1920 -1969 -2107 0
-1668 -1696 -1854 -1987 -2121 -2166 0
-1682 -1720 -1876 0
-2040 -2121 -2166 0
-1682 -1720 -1876 -1954 -2107 0
-1668 -1689 -2040 -2121 -2166 0
-1682 -1720 -1815 -1876 -1886 0
-1595 -1686 -2040 -2121 -2166 0
-1682 -1720 -1734 -1815 -1876 0
-1686 -1714 -2040 -2121 -2166 0
-1682 -1720 -1826 -1876 -1886 0
-1595 -1776 -2040 -2121 -2166 0
-1682 -1720 -1734 -1826 -1876 0
-1714 -1776 -2040 -2121 -2166 0
-1667 -1682 -1720 -1734 -1876 0
-1714 -1870 -2040 -2121 -2166 0
-2054 -2098 -2107 0
-1668 -1689 -2054 -2098 -2107 0
-1698 -1787 -1815 -1860 -1886 0
-1595 -1686 -2054 -2098 -2107 0
-1698 -1734 -1787 -1815 -1860 0
-1686 -1714 -2054 -2098 -2107 0
-1698 -1787 -1826 -1860 -1886 0
-1595 -1776 -2054 -2098 -2107 0
-1698 -1734 -1787 -1826 -1860 0
-1714 -1776 -2054 -2098 -2107 0
-1667 -1698 -1734 -1787 -1860 0
-1714 -1870 -2054 -2098 -2107 0
-1860 -1870 -2027 -2107 0
-1668 -1769 -2107 -2110 0
-1860 -1870 -1941 -2027 -2107 0
-1668 -1769 -2029 -2107 -2110 0
-1840 -1848 -1860 -1870 -2027 -2107 0
-1668 -1769 -1976 -1979 -2107 -2110 0
-1720 -1860 -1926 -2027 -2107 0
-1668 -1769 -2018 -2107 -2166 0
-1720 -1776 -1860 -2027 -2107 0
-1668 -1769 -2089 -2107 -2166 0
-1720 -1776 -1860 -1941 -2027 -2107 0
-1668 -1769 -2029 -2089 -2107 -2166 0
-1720 -1776 -1840 -1848 -1860 -2027 -2107 0
-1668 -1769 -1976 -1979 -2089 -2107 -2166 0
-1720 -1787 -1860 0
-2098 -2107 -2166 0
-1720 -1787 -1860 -1954 -2107 0
-1668 -1689 -2098 -2107 -2166 0
-1720 -1787 -1815 -1860 -1886 0
-1595 -1686 -2098 -2107 -2166 0
-1720 -1734 -1787 -1815 -1860 0
-1686 -1714 -2098 -2107 -2166 0
-1720 -1787 -1826 -1860 -1886 0
-1595 -1776 -2098 -2107 -2166 0
-1720 -1734 -1787 -1826 -1860 0
-1714 -1776 -2098 -2107 -2166 0
-1667 -1720 -1734 -1787 -1860 0
-1714 -1870 -2098 -2107 -2166 0
-1720 -1787 -1840 -1860 -2027 -2107 0
-1668 -1769 -1979 -2098 -2107 -2166 0
-1720 -1787 -1840 -1860 -1886 -1920 0
-1595 -1854 -1979 -2098 -2107 -2166 0
-1720 -1787 -1840 -1860 -1920 -1969 -2107 0
-1668 -1696 -1854 -1979 -2098 -2107 -2166 0
-1720 -1765 -1787 -1860 0
-1942 -2098 -2107 -2166 0
-1720 -1765 -1787 -1860 -1954 -2107 0
-1668 -1689 -1942 -2098 -2107 -2166 0
-1720 -1765 -1787 -1815 -1860 -1886 0
-1595 -1686 -1942 -2098 -2107 -2166 0
-1720 -1734 -1765 -1787 -1815 -1860 0
-1686 -1714 -1942 -2098 -2107 -2166 0
-1720 -1779 -1860 -2027 -2107 0
-1668 -1769 -2082 -2107 -2166 0
-1720 -1779 -1854 -1860 -2027 -2107 0
-1668 -1769 -1987 -2082 -2107 -2166 0
-1720 -1779 -1854 -1860 -1886 -1920 0
-1595 -1854 -1987 -2082 -2107 -2166 0
-1720 -1779 -1854 -1860 -1920 -1969 -2107 0
-1668 -1696 -1854 -1987 -2082 -2107 -2166 0
-1776 -1779 -2027 -2107 0
-1668 -1769 -2082 -2089 0
-1734 -1854 0
-1714 -1987 0
-1734 -1969 0
-1696 -1714 0
-1734 -1911 -2015 0
-1664 -1714 -1848 0
-1840 -1886 -2015 0
-1595 -1664 -1979 0
-1734 -2015 -2026 0
-1664 -1714 -1754 0
-1734 -1954 -2015 0
-1664 -1689 -1714 0
-1734 -2082 -2089 0
-1714 -1818 -1826 0
-1734 -1969 -2082 -2089 0
-1696 -1714 -1818 -1826 0
-1734 -1954 -1987 -2015 0
-1664 -1689 -1714 -1920 0
-1676 -1765 -1979 0
-1876 -1904 -1942 0
-1698 -1765 -1979 0
-1904 -1942 -2054 0
-1734 -1954 -1979 -2027 0
-1689 -1714 -1769 -1904 0
-1734 -1969 -1979 -2026 0
-1696 -1714 -1754 -1904 0
-1734 -1911 -1979 0
-1714 -1848 -1904 0
-1676 -1765 -1776 -1779 -1979 0
-1876 -1904 -1942 -2082 -2089 0
-2027 -2054 -2107 0
-1668 -1769 -1965 0
-1720 -2027 -2054 -2107 0
-1668 -1769 -1965 -2166 0
-1698 -2027 -2054 -2107 0
-1668 -1769 -1965 -2054 0
-1668 -1689 -2027 -2054 -2107 0
-1668 -1769 -1860 -1965 -2048 0
-1734 -2054 0
-1714 -1965 0
-1734 -1904 -1911 -2054 0
-1714 -1840 -1848 -1965 0
-1776 -1779 -2027 -2054 -2107 0
-1668 -1769 -1965 -2082 -2089 0
-1734 -1854 -2054 0
-1714 -1965 -1987 0
-1720 -2054 -2098 -2107 0
-1668 -1832 -1965 -2166 0
-1698 -2054 -2098 -2107 0
-1668 -1832 -1965 -2054 0
-1776 -1779 -2054 -2098 -2107 0
-1668 -1832 -1965 -2082 -2089 0
-1734 -1969 -2054 0
-1696 -1714 -1965 0
-1734 -1911 -2015 -2054 0
-1664 -1714 -1848 -1965 0
-1840 -1886 -2015 -2054 0
-1595 -1664 -1965 -1979 0
-1734 -2015 -2026 -2054 0
-1664 -1714 -1754 -1965 0
-1734 -1954 -2015 -2054 0
-1664 -1689 -1714 -1965 0
-1904 -1941 -2054 0
-1840 -1965 -2029 0
-1698 -1904 -1941 -2054 0
-1840 -1965 -2029 -2054 0
-1668 -1689 -1904 -1941 -2054 0
-1840 -1860 -1965 -2029 -2048 0
-1848 -1886 -1941 -2015 -2054 0
-1595 -1664 -1965 -1976 -2029 0
-1698 -1754 -1886 -1941 -2015 -2054 0
-1595 -1664 -1933 -1965 -2029 -2054 0
-1698 -1757 -1886 -1941 -2015 -2054 0
-1595 -1664 -1926 -1965 -2029 -2054 0
-1734 -2125 0
-1674 -1714 0
-1734 -1969 -2125 0
-1674 -1696 -1714 0
-1734 -2125 -2163 0
-1674 -1714 -1739 0
-1734 -1969 -2125 -2163 0
-1674 -1696 -1714 -1739 0
-2098 -2107 -2163 0
-1668 -1739 -1832 0
-1720 -2098 -2107 -2163 0
-1668 -1739 -1832 -2166 0
-1698 -2098 -2107 -2163 0
-1668 -1739 -1832 -2054 0
-1668 -1689 -2098 -2107 -2163 0
-1668 -1739 -1832 -1860 -2048 0
-1776 -1779 -2098 -2107 -2163 0
-1668 -1739 -1832 -2082 -2089 0
-1941 -2098 -2107 -2163 0
-1668 -1739 -1832 -2029 0
-1720 -1941 -2098 -2107 -2163 0
-1668 -1739 -1832 -2029 -2166 0
-1876 -1941 -2098 -2107 -2163 0
-1668 -1739 -1832 -2029 -2121 0
-1734 -2163 0
-1714 -1739 0
-1734 -1969 -2163 0
-1696 -1714 -1739 0
-1727 0
-1727 -1876 0
-1727 -2054 0
-1727 -1940 0
-1727 -1876 -1940 0
-1727 -1940 -2054 0
-1727 -1933 -2041 0
-1727 -1991 0
-1727 -1991 -2054 0
-1727 -1976 -2041 -2054 0
-1727 -1854 0
-1727 -1854 -2054 0
-1727 -2163 0
-1727 -2096 0
-1727 -2096 -2163 0
-1727 -2054 -2096 0
-1727 -2125 0
-1727 -2125 -2163 0
-1727 -2032 0
-1727 -2032 -2054 0
-1727 -2016 -2026 0
-1727 -2016 -2026 -2163 0
-1727 -1761 0
-1727 -1761 -1876 0
-1727 -1761 -2054 0
-1727 -1761 -1940 0
-1727 -1761 -1876 -1940 0
-1727 -1761 -1940 -2054 0
-1727 -1761 -1933 -2041 0
-1727 -1761 -1991 0
-1727 -1761 -1991 -2054 0
-1727 -1761 -1976 -2041 -2054 0
-1727 -1838 -1911 0
-1727 -1838 -1876 -1911 0
-1727 -1911 -2016 0
-1727 -1911 -2016 -2163 0
-1727 -1904 -1911 0
-1727 -1876 -1904 -1911 0
-1727 -1904 -1911 -2054 0
-1727 -1904 -1911 -1940 0
-1727 -1876 -1904 -1911 -1940 0
-1727 -1904 -1911 -1940 -2054 0
-1727 -1904 -1911 -1933 -2041 0
-1727 -1904 -1911 -1991 0
-1727 -1904 -1911 -1991 -2054 0
-1727 -1904 -1911 -1976 -2041 -2054 0
-1727 -1954 -2016 0
-1727 -1954 -2016 -2163 0
-1675 -1742 -1757 0
-1675 -1742 -1757 -1876 0
-1675 -1742 -1757 -2054 0
-1675 -1742 -1757 -1940 0
-1675 -1742 -1757 -1876 -1940 0
-1675 -1742 -1757 -1940 -2054 0
-1675 -1742 -1757 -1933 -2041 0
-1675 -1742 -1757 -1991 0
-1675 -1742 -1757 -1991 -2054 0
-1675 -1742 -1757 -1976 -2041 -2054 0
-1572 -1832 -1961 0
-1572 -1832 -1961 -2054 0
-1572 -1832 -1961 -2163 0
-1572 -1832 -1961 -2096 0
-1572 -1832 -1961 -2096 -2163 0
-1572 -1832 -1961 -2054 -2096 0
-1572 -1832 -1961 -2125 0
-1572 -1832 -1961 -2125 -2163 0
-1667 -1742 0
-1667 -1742 -1876 0
-1667 -1742 -2054 0
-1667 -1742 -1940 0
-1667 -1742 -1876 -1940 0
-1667 -1742 -1940 -2054 0
-1667 -1742 -1933 -2041 0
-1667 -1742 -1991 0
-1667 -1742 -1991 -2054 0
-1667 -1742 -1976 -2041 -2054 0
-1920 -1961 -2016 0
-1920 -1961 -2016 -2163 0
-1727 -1838 -1848 0
-1727 -1838 -1848 -2054 0
-1667 -1742 -1838 -1848 0
-1667 -1742 -1838 -1848 -2054 0
-1727 -1854 -1876 0
-1667 -1742 -1854 0
-1667 -1742 -1854 -1876 0
-1711 -1727 -1863 0
-1667 -1711 -1742 -1863 0
-1718 -1727 0
-1667 -1718 -1742 0
-1718 -1727 -1876 0
-1667 -1718 -1742 -1876 0
-1727 -1776 -1863 -1876 0
-1667 -1742 -1776 -1863 -1876 0
-1727 -1791 0
-1667 -1742 -1791 0
-1727 -1791 -1876 0
-1667 -1742 -1791 -1876 0
-1698 -1727 0
-1698 -1727 -1876 0
-1698 -1727 -2054 0
-1698 -1727 -1940 0
-1698 -1727 -1876 -1940 0
-1698 -1727 -1940 -2054 0
-1698 -1727 -1933 -2041 0
-1698 -1727 -1991 0
-1698 -1727 -1991 -2054 0
-1698 -1727 -1976 -2041 -2054 0
-1667 -1698 -1742 0
-1667 -1698 -1742 -1876 0
-1667 -1698 -1742 -2054 0
-1667 -1698 -1742 -1940 0
-1667 -1698 -1742 -1876 -1940 0
-1667 -1698 -1742 -1940 -2054 0
-1667 -1698 -1742 -1933 -2041 0
-1667 -1698 -1742 -1991 0
-1667 -1698 -1742 -1991 -2054 0
-1667 -1698 -1742 -1976 -2041 -2054 0
-1698 -1920 -1961 -2016 0
-1698 -1920 -1961 -2016 -2163 0
-1698 -1711 -1727 -1863 0
-1667 -1698 -1711 -1742 -1863 0
-1698 -1718 -1727 0
-1667 -1698 -1718 -1742 0
-1698 -1718 -1727 -1876 0
-1667 -1698 -1718 -1742 -1876 0
-1698 -1727 -1776 -1863 -1876 0
-1667 -1698 -1742 -1776 -1863 -1876 0
-1698 -1727 -1791 0
-1667 -1698 -1742 -1791 0
-1698 -1727 -1791 -1876 0
-1667 -1698 -1742 -1791 -1876 0
-1698 -1727 -1854 0
-1698 -1727 -1854 -2054 0
-1698 -1727 -1757 -1838 0
-1698 -1727 -1757 -1838 -2054 0
-1698 -1761 -1838 0
-1698 -1761 -1838 -1954 -2107 0
-1698 -1761 -1838 -1961 0
-1698 -1761 -1838 -2054 0
-1698 -1761 -1838 -1954 -2054 -2107 0
-1698 -1761 -1838 -1961 -2054 0
-1698 -1727 -1754 -1838 0
-1698 -1727 -1754 -1838 -2054 0
-1667 -1698 -1742 -1754 -1838 0
-1667 -1698 -1742 -1754 -1838 -2054 0
-1682 -1686 -1727 0
-1667 -1682 -1686 -1742 0
-1682 -1727 -1776 0
-1667 -1682 -1742 -1776 0
-1682 -1686 -1727 -1876 0
-1667 -1682 -1686 -1742 -1876 0
-1682 -1711 -1727 -1876 0
-1667 -1682 -1711 -1742 -1876 0
-1682 -1727 -1862 -1940 0
-1667 -1682 -1742 -1862 -1940 0
-1618 -1682 -1727 -1876 -1940 0
-1618 -1667 -1682 -1742 -1876 -1940 0
-1618 -1682 -1686 -1711 -1727 0
-1618 -1667 -1682 -1686 -1711 -1742 0
-1618 -1682 -1727 -1940 0
-1618 -1667 -1682 -1742 -1940 0
-1618 -1682 -1727 0
-1618 -1667 -1682 -1742 0
-1618 -1682 -1727 -1876 0
-1618 -1667 -1682 -1742 -1876 0
-1618 -1682 -1686 -1727 -1776 -1876 0
-1618 -1667 -1682 -1686 -1742 -1776 -1876 0
-1618 -1711 -1727 0
-1618 -1667 -1711 -1742 0
-1618 -1711 -1727 -1761 0
-1618 -1727 -1776 -1876 0
-1618 -1667 -1742 -1776 -1876 0
-1618 -1727 -1761 -1776 -1876 0
-1682 -1711 -1727 0
-1667 -1682 -1711 -1742 0
-1682 -1711 -1727 -1940 0
-1667 -1682 -1711 -1742 -1940 0
-1718 -1727 -1761 0
-1682 -1686 -1718 -1727 0
-1667 -1682 -1686 -1718 -1742 0
-1682 -1718 -1727 -1862 -1940 0
-1667 -1682 -1718 -1742 -1862 -1940 0
-1682 -1727 -1870 0
-1667 -1682 -1742 -1870 0
-1706 0
-2158 0
-1706 -2121 0
-1676 -2158 0
-1706 -1965 0
-1698 -2158 0
-1706 -2027 0
-1769 -2158 0
-1706 -2027 -2121 0
-1676 -1769 -2158 0
-1706 -1965 -2027 0
-1698 -1769 -2158 0
-1706 -1815 -2026 0
-1686 -1754 -2158 0
-1706 -1918 0
-1849 -2158 0
-1706 -1918 -1965 0
-1698 -1849 -2158 0
-1706 -1815 -1911 -1965 0
-1686 -1698 -1848 -2158 0
-1706 -1987 0
-1920 -2158 0
-1706 -1965 -1987 0
-1698 -1920 -2158 0
-1706 -1739 0
-1719 -2158 0
-1706 -1827 0
-1791 -2158 0
-1706 -1739 -1827 0
-1719 -1791 -2158 0
-1706 -1827 -1965 0
-1698 -1791 -2158 0
-1674 -1706 0
-1871 -2158 0
-1674 -1706 -1739 0
-1719 -1871 -2158 0
-1706 -1765 0
-1942 -2158 0
-1706 -1765 -1965 0
-1698 -1942 -2158 0
-1706 -1751 -1754 0
-1933 -1934 -2158 0
-1706 -1739 -1751 -1754 0
-1719 -1933 -1934 -2158 0
-1706 -1941 0
-2029 -2158 0
-1706 -1941 -2121 0
-1676 -2029 -2158 0
-1706 -1941 -1965 0
-1698 -2029 -2158 0
-1706 -1941 -2027 0
-1769 -2029 -2158 0
-1706 -1941 -2027 -2121 0
-1676 -1769 -2029 -2158 0
-1706 -1941 -1965 -2027 0
-1698 -1769 -2029 -2158 0
-1706 -1815 -1941 -2026 0
-1686 -1754 -2029 -2158 0
-1706 -1918 -1941 0
-1849 -2029 -2158 0
-1706 -1918 -1941 -1965 0
-1698 -1849 -2029 -2158 0
-1706 -1815 -1911 -1941 -1965 0
-1686 -1698 -1848 -2029 -2158 0
-1706 -1848 -1973 0
-1912 -1976 -2158 0
-1706 -1848 -1973 -2121 0
-1676 -1912 -1976 -2158 0
-1706 -1751 -1848 0
-1934 -1976 -2158 0
-1706 -1739 -1751 -1848 0
-1719 -1934 -1976 -2158 0
-1706 -1840 -1848 0
-1976 -1979 -2158 0
-1706 -1840 -1848 -2121 0
-1676 -1976 -1979 -2158 0
-1706 -1840 -1848 -1965 0
-1698 -1976 -1979 -2158 0
-1706 -1840 -1848 -2027 0
-1769 -1976 -1979 -2158 0
-1706 -1840 -1848 -2027 -2121 0
-1676 -1769 -1976 -1979 -2158 0
-1706 -1840 -1848 -1965 -2027 0
-1698 -1769 -1976 -1979 -2158 0
-1706 -1815 -1840 -1848 -2026 0
-1686 -1754 -1976 -1979 -2158 0
-1706 -1840 -1848 -1918 0
-1849 -1976 -1979 -2158 0
-1706 -1840 -1848 -1918 -1965 0
-1698 -1849 -1976 -1979 -2158 0
-1706 -1815 -1840 -1848 -1911 -1965 0
-1686 -1698 -1848 -1976 -1979 -2158 0
-1689 -1706 -1751 0
-1934 -2048 -2158 0
-1689 -1706 -1739 -1751 0
-1719 -1934 -2048 -2158 0
-1717 -1873 -1926 0
-2018 -2117 -2162 0
-1717 -1873 -1926 -2121 0
-1676 -2018 -2117 -2162 0
-1717 -1873 -1926 -1965 0
-1698 -2018 -2117 -2162 0
-1717 -1873 -1926 -2027 0
-1769 -2018 -2117 -2162 0
-1717 -1873 -1926 -2027 -2121 0
-1676 -1769 -2018 -2117 -2162 0
-1717 -1873 -1926 -1965 -2027 0
-1698 -1769 -2018 -2117 -2162 0
-1717 -1815 -1873 -1926 -2026 0
-1686 -1754 -2018 -2117 -2162 0
-1717 -1873 -1918 -1926 0
-1849 -2018 -2117 -2162 0
-1717 -1873 -1918 -1926 -1965 0
-1698 -1849 -2018 -2117 -2162 0
-1717 -1815 -1873 -1911 -1926 -1965 0
-1686 -1698 -1848 -2018 -2117 -2162 0
-1697 -1787 -1859 0
-2051 -2064 -2098 0
-1697 -1787 -1859 -1965 0
-1698 -2051 -2064 -2098 0
-1697 -1739 -1787 -1859 0
-1719 -2051 -2064 -2098 0
-1697 -1787 -1827 -1859 0
-1791 -2051 -2064 -2098 0
-1697 -1739 -1787 -1827 -1859 0
-1719 -1791 -2051 -2064 -2098 0
-1697 -1787 -1827 -1859 -1965 0
-1698 -1791 -2051 -2064 -2098 0
-1674 -1697 -1787 -1859 0
-1871 -2051 -2064 -2098 0
-1674 -1697 -1739 -1787 -1859 0
-1719 -1871 -2051 -2064 -2098 0
-1717 -1870 0
-2110 -2162 0
-1717 -1870 -2121 0
-1676 -2110 -2162 0
-1717 -1870 -1965 0
-1698 -2110 -2162 0
-1717 -1870 -2027 0
-1769 -2110 -2162 0
-1717 -1870 -2027 -2121 0
-1676 -1769 -2110 -2162 0
-1717 -1870 -1965 -2027 0
-1698 -1769 -2110 -2162 0
-1717 -1815 -1870 -2026 0
-1686 -1754 -2110 -2162 0
-1717 -1870 -1918 0
-1849 -2110 -2162 0
-1717 -1870 -1918 -1965 0
-1698 -1849 -2110 -2162 0
-1717 -1815 -1870 -1911 -1965 0
-1686 -1698 -1848 -2110 -2162 0
-1697 -1751 -1854 0
-1934 -1987 -2051 0
-1697 -1739 -1751 -1854 0
-1719 -1934 -1987 -2051 0
-1706 -1973 -1976 0
-1911 -1912 -2158 0
-1706 -1965 -1973 -1976 0
-1698 -1911 -1912 -2158 0
-1717 -1870 -1973 -1976 0
-1911 -1912 -2110 -2162 0
-1717 -1870 -1965 -1973 -1976 0
-1698 -1911 -1912 -2110 -2162 0
-1706 -1987 -2121 0
-1676 -1920 -2158 0
-1717 -1870 -1987 0
-1920 -2110 -2162 0
-1717 -1870 -1987 -2121 0
-1676 -1920 -2110 -2162 0
-1706 -2015 -2160 0
-1664 -1732 -2158 0
-1717 -1870 -2015 -2160 0
-1664 -1732 -2110 -2162 0
-1706 -2161 0
-1747 -2158 0
-1717 -1870 -2161 0
-1747 -2110 -2162 0
-1706 -2121 -2161 0
-1676 -1747 -2158 0
-1717 -1870 -2121 -2161 0
-1676 -1747 -2110 -2162 0
-1706 -2015 -2089 -2121 0
-1664 -1676 -1826 -2158 0
-1717 -1870 -2015 -2089 -2121 0
-1664 -1676 -1826 -2110 -2162 0
-1706 -2096 0
-1827 -2158 0
-1717 -1870 -2096 0
-1827 -2110 -2162 0
-1706 -2096 -2121 0
-1676 -1827 -2158 0
-1717 -1870 -2096 -2121 0
-1676 -1827 -2110 -2162 0
-1706 -2054 0
-1965 -2158 0
-1706 -2054 -2121 0
-1676 -1965 -2158 0
-1706 -1965 -2054 0
-1698 -1965 -2158 0
-1706 -2027 -2054 0
-1769 -1965 -2158 0
-1706 -2027 -2054 -2121 0
-1676 -1769 -1965 -2158 0
-1706 -1965 -2027 -2054 0
-1698 -1769 -1965 -2158 0
-1706 -1815 -2026 -2054 0
-1686 -1754 -1965 -2158 0
-1706 -1918 -2054 0
-1849 -1965 -2158 0
-1706 -1918 -1965 -2054 0
-1698 -1849 -1965 -2158 0
-1706 -1815 -1911 -1965 -2054 0
-1686 -1698 -1848 -1965 -2158 0
-1717 -1870 -2054 0
-1965 -2110 -2162 0
-1717 -1870 -2054 -2121 0
-1676 -1965 -2110 -2162 0
-1717 -1870 -1965 -2054 0
-1698 -1965 -2110 -2162 0
-1717 -1870 -2027 -2054 0
-1769 -1965 -2110 -2162 0
-1717 -1870 -2027 -2054 -2121 0
-1676 -1769 -1965 -2110 -2162 0
-1717 -1870 -1965 -2027 -2054 0
-1698 -1769 -1965 -2110 -2162 0
-1717 -1815 -1870 -2026 -2054 0
-1686 -1754 -1965 -2110 -2162 0
-1717 -1870 -1918 -2054 0
-1849 -1965 -2110 -2162 0
-1717 -1870 -1918 -1965 -2054 0
-1698 -1849 -1965 -2110 -2162 0
-1717 -1815 -1870 -1911 -1965 -2054 0
-1686 -1698 -1848 -1965 -2110 -2162 0
-1697 -1751 -1854 -2054 0
-1934 -1965 -1987 -2051 0
-1697 -1739 -1751 -1854 -2054 0
-1719 -1934 -1965 -1987 -2051 0
-1706 -2015 -2054 -2160 0
-1664 -1732 -1965 -2158 0
-1717 -1870 -2015 -2054 -2160 0
-1664 -1732 -1965 -2110 -2162 0
-1706 -2054 -2161 0
-1747 -1965 -2158 0
-1717 -1870 -2054 -2161 0
-1747 -1965 -2110 -2162 0
-1706 -2054 -2121 -2161 0
-1676 -1747 -1965 -2158 0
-1717 -1870 -2054 -2121 -2161 0
-1676 -1747 -1965 -2110 -2162 0
-1706 -2015 -2054 -2089 -2121 0
-1664 -1676 -1826 -1965 -2158 0
-1717 -1870 -2015 -2054 -2089 -2121 0
-1664 -1676 -1826 -1965 -2110 -2162 0
-1706 -2054 -2096 0
-1827 -1965 -2158 0
-1717 -1870 -2054 -2096 0
-1827 -1965 -2110 -2162 0
-1706 -2054 -2096 -2121 0
-1676 -1827 -1965 -2158 0
-1717 -1870 -2054 -2096 -2121 0
-1676 -1827 -1965 -2110 -2162 0
-1706 -1987 -2054 0
-1920 -1965 -2158 0
-1706 -1965 -1987 -2054 0
-1698 -1920 -1965 -2158 0
-1706 -1926 -1973 -2054 0
-1912 -1965 -2018 -2158 0
-1706 -1926 -1965 -1973 -2054 0
-1698 -1912 -1965 -2018 -2158 0
-1941 -1973 -2054 0
-1912 -1965 -2029 0
-1668 -1689 -1941 -1973 -2054 0
-1860 -1912 -1965 -2029 -2048 0
-1697 -1941 -1973 -2054 0
-1912 -1965 -2029 -2051 0
-1941 -1965 -1973 -2054 0
-1698 -1912 -1965 -2029 0
-1668 -1689 -1941 -1965 -1973 -2054 0
-1698 -1860 -1912 -1965 -2029 -2048 0
-1697 -1941 -1965 -1973 -2054 0
-1698 -1912 -1965 -2029 -2051 0
-1706 -1933 -1973 -2054 0
-1912 -1965 -2026 -2158 0
-1706 -1933 -1965 -1973 -2054 0
-1698 -1912 -1965 -2026 -2158 0
-1717 -1870 -1933 -1973 -2054 0
-1912 -1965 -2026 -2110 -2162 0
-1717 -1870 -1933 -1965 -1973 -2054 0
-1698 -1912 -1965 -2026 -2110 -2162 0
-1706 -2040 -2041 0
-1815 -1957 -2158 0
-1717 -1870 -2040 -2041 0
-1815 -1957 -2110 -2162 0
-1706 -2040 -2089 0
-1826 -1957 -2158 0
-1717 -1870 -2040 -2089 0
-1826 -1957 -2110 -2162 0
-1706 -2040 -2041 -2121 0
-1676 -1815 -1957 -2158 0
-1717 -1870 -2040 -2041 -2121 0
-1676 -1815 -1957 -2110 -2162 0
-1706 -2040 -2121 -2160 0
-1676 -1732 -1957 -2158 0
-1717 -1870 -2040 -2121 -2160 0
-1676 -1732 -1957 -2110 -2162 0
-1706 -2027 -2040 -2113 0
-1660 -1769 -1957 -2158 0
-1717 -1870 -2027 -2040 -2113 0
-1660 -1769 -1957 -2110 -2162 0
-1706 -2027 -2040 -2121 -2149 0
-1642 -1676 -1769 -1957 -2158 0
-1717 -1870 -2027 -2040 -2121 -2149 0
-1642 -1676 -1769 -1957 -2110 -2162 0
-1706 -2040 -2041 -2149 -2160 0
-1642 -1732 -1815 -1957 -2158 0
-1717 -1870 -2040 -2041 -2149 -2160 0
-1642 -1732 -1815 -1957 -2110 -2162 0
-1706 -2027 -2040 -2149 0
-1642 -1769 -1957 -2158 0
-1717 -1870 -2027 -2040 -2149 0
-1642 -1769 -1957 -2110 -2162 0
-1706 -2040 -2149 0
-1642 -1957 -2158 0
-1717 -1870 -2040 -2149 0
-1642 -1957 -2110 -2162 0
-1706 -2040 -2121 -2149 0
-1642 -1676 -1957 -2158 0
-1717 -1870 -2040 -2121 -2149 0
-1642 -1676 -1957 -2110 -2162 0
-1706 -2040 -2041 -2089 -2121 -2149 0
-1642 -1676 -1815 -1826 -1957 -2158 0
-1717 -1870 -2040 -2041 -2089 -2121 -2149 0
-1642 -1676 -1815 -1826 -1957 -2110 -2162 0
-1706 -2149 -2160 0
-1642 -1732 -2158 0
-1717 -1870 -2149 -2160 0
-1642 -1732 -2110 -2162 0
-1706 -1941 -2149 -2160 0
-1642 -1732 -2029 -2158 0
-1706 -2089 -2121 -2149 0
-1642 -1676 -1826 -2158 0
-1717 -1870 -2089 -2121 -2149 0
-1642 -1676 -1826 -2110 -2162 0
-1706 -1941 -2089 -2121 -2149 0
-1642 -1676 -1826 -2029 -2158 0
-1706 -2040 -2160 0
-1732 -1957 -2158 0
-1717 -1870 -2040 -2160 0
-1732 -1957 -2110 -2162 0
-1706 -2027 -2040 -2160 0
-1732 -1769 -1957 -2158 0
-1717 -1870 -2027 -2040 -2160 0
-1732 -1769 -1957 -2110 -2162 0
-1706 -1941 -2161 0
-1747 -2029 -2158 0
-1706 -2040 -2041 -2161 0
-1747 -1815 -1957 -2158 0
-1717 -1870 -2040 -2041 -2161 0
-1747 -1815 -1957 -2110 -2162 0
-1706 -2027 -2040 -2113 -2161 0
-1660 -1747 -1769 -1957 -2158 0
-1717 -1870 -2027 -2040 -2113 -2161 0
-1660 -1747 -1769 -1957 -2110 -2162 0
-1706 -2040 -2110 0
-1667 -1957 -2158 0
-1717 -1870 -2040 -2110 0
-1667 -1957 -2110 -2162 0
-1841 -1951 -2016 0
-1841 -1951 -2016 -2163 0
-1676 -1841 -1951 -2016 0
-1676 -1841 -1951 -2016 -2163 0
-1642 -1676 -1832 0
-1642 -1676 -1832 -1860 -2048 0
-1642 -1676 -1832 -2054 0
-1642 -1676 -1832 -2163 0
-1642 -1676 -1832 -1983 0
-1642 -1676 -1832 -1860 -1933 -1983 0
-1642 -1676 -1832 -2096 0
-1642 -1676 -1832 -2096 -2163 0
-1642 -1676 -1832 -2054 -2096 0
-1642 -1676 -1832 -2125 0
-1642 -1676 -1832 -2125 -2163 0
-1642 -1676 -1832 -2016 -2026 0
-1642 -1676 -1832 -2016 -2026 -2163 0
-1642 -1676 -1832 -2032 0
-1642 -1676 -1832 -1860 -2032 -2048 0
-1642 -1676 -1832 -2032 -2054 0
-1908 -1941 -2054 0
-1863 -1983 -2054 0
-1840 -1951 -2016 0
-1840 -1951 -2016 -2163 0
-1816 -1840 -2016 0
-1816 -1840 -2016 -2163 0
-1664 -1773 -1911 -1983 0
-1595 -1854 -1983 0
-1595 -1854 -1951 -1954 -1983 0
-1595 -1664 -1911 -1983 0
-1595 -1664 -1911 -1941 -2054 0
-1595 -1664 -1941 -1951 -2054 0
-1618 -1773 -1860 0
-1618 -1642 -1732 -1773 -1860 0
-1618 -1773 -1860 -1954 -2107 0
-1618 -1660 -1664 -1773 -1860 0
-1618 -1642 -1667 -1773 -1860 0
-1618 -1667 -1747 -1773 -1860 -1951 0
-1618 -1642 -1773 -1826 -1860 0
-1618 -1773 -1826 -1860 -1951 0
-1618 -1773 -1816 -1860 -1951 0
-1618 -1660 -1754 -1773 -1860 0
-1618 -1664 -1754 -1773 -1860 0
-1618 -1664 -1754 -1773 -1860 -1954 -2107 0
-1618 -1787 -1876 0
-1618 -1642 -1732 -1787 -1876 0
-1618 -1787 -1876 -1954 -2107 0
-1618 -1660 -1664 -1787 -1876 0
-1618 -1642 -1667 -1787 -1876 0
-1618 -1667 -1747 -1787 -1876 -1951 0
-1618 -1642 -1787 -1826 -1876 0
-1618 -1787 -1826 -1876 -1951 0
-1618 -1787 -1816 -1876 -1951 0
-1618 -1660 -1754 -1787 -1876 0
-1618 -1664 -1754 -1787 -1876 0
-1618 -1664 -1754 -1787 -1876 -1954 -2107 0
-1690 -1751 -1837 0
-1908 -1934 -2038 0
-1690 -1739 -1751 -1837 0
-1719 -1908 -1934 -2038 0
-1690 -1751 -1837 -1876 0
-1908 -1934 -2038 -2121 0
-1690 -1739 -1751 -1837 -1876 0
-1719 -1908 -1934 -2038 -2121 0
-2098 -2121 -2149 0
-1668 -1689 -2098 -2121 -2149 0
-1618 -1787 -1876 -1965 0
-1698 -2098 -2121 -2149 0
-1618 -1739 -1787 -1876 0
-1719 -2098 -2121 -2149 0
-1618 -1787 -1876 -1919 0
-1851 -2098 -2121 -2149 0
-1618 -1787 -1876 -1919 -2026 -2107 0
-1668 -1754 -1851 -2098 -2121 -2149 0
-1618 -1787 -1827 -1876 0
-1791 -2098 -2121 -2149 0
-1618 -1739 -1787 -1827 -1876 0
-1719 -1791 -2098 -2121 -2149 0
-1618 -1787 -1827 -1876 -1965 0
-1698 -1791 -2098 -2121 -2149 0
-1618 -1674 -1787 -1876 0
-1871 -2098 -2121 -2149 0
-1618 -1674 -1739 -1787 -1876 0
-1719 -1871 -2098 -2121 -2149 0
-1618 -1751 -1754 -1787 -1876 0
-1933 -1934 -2098 -2121 -2149 0
-1618 -1739 -1751 -1754 -1787 -1876 0
-1719 -1933 -1934 -2098 -2121 -2149 0
-1618 -1765 -1787 -1876 0
-1942 -2098 -2121 -2149 0
-1618 -1765 -1787 -1876 -1954 -2107 0
-1668 -1689 -1942 -2098 -2121 -2149 0
-1618 -1765 -1787 -1876 -1965 0
-1698 -1942 -2098 -2121 -2149 0
-1841 -1965 -2029 0
-1698 -1761 -1837 0
-1919 -1965 -2015 0
-1664 -1698 -1851 0
-1690 -1751 -1979 0
-1904 -1934 -2038 0
-1690 -1739 -1751 -1979 0
-1719 -1904 -1934 -2038 0
-1751 -1773 -1979 0
-1904 -1934 -2090 0
-1739 -1751 -1773 -1979 0
-1719 -1904 -1934 -2090 0
-1848 -1863 -1919 -2090 0
-1816 -1851 -1976 -2015 0
-1919 -1987 -2037 0
-1851 -1886 -1920 0
-1689 -1690 -1919 -1987 -2037 0
-1851 -1886 -1920 -2038 -2048 0
-1848 -1863 -1919 -2037 0
-1851 -1886 -1976 -2015 0
-1848 -1863 -1965 -2029 -2037 0
-1698 -1761 -1886 -1976 -2015 0
-1690 -1863 -1965 -2029 -2037 0
-1698 -1761 -1886 -2015 -2038 0
-2090 -2107 -2149 0
-1642 -1668 -1816 0
-1618 -1711 -2090 -2107 -2149 0
-1642 -1668 -1816 -2149 -2160 0
-1668 -1689 -2090 -2107 -2149 0
-1642 -1668 -1816 -1860 -2048 0
-1862 -1863 -2090 -2107 -2149 0
-1642 -1668 -1816 -2015 -2113 0
-1618 -1870 -2090 -2107 -2149 0
-1642 -1668 -1816 -2110 -2149 0
-1690 -1718 -1870 -2090 -2107 -2149 0
-1642 -1668 -1816 -2038 -2110 -2161 0
-1618 -1776 -2090 -2107 -2149 0
-1642 -1668 -1816 -2089 -2149 0
-1690 -1776 -2090 -2107 -2149 0
-1642 -1668 -1816 -2038 -2089 0
-1690 -1773 -2090 -2107 -2149 0
-1642 -1668 -1816 -2038 -2090 0
-1862 -1933 -2090 -2107 -2149 0
-1642 -1668 -1816 -2026 -2113 0
-1863 -1933 -2090 -2107 -2149 0
-1642 -1668 -1816 -2015 -2026 0
-1668 -1689 -1863 -1933 -2090 -2107 -2149 0
-1642 -1668 -1816 -1860 -2015 -2026 -2048 0
-1618 -1711 -2098 -2121 -2149 0
-1642 -1676 -1832 -2149 -2160 0
-1862 -1863 -2098 -2121 -2149 0
-1642 -1676 -1832 -2015 -2113 0
-1618 -1870 -2098 -2121 -2149 0
-1642 -1676 -1832 -2110 -2149 0
-1690 -1718 -1870 -2098 -2121 -2149 0
-1642 -1676 -1832 -2038 -2110 -2161 0
-1618 -1776 -2098 -2121 -2149 0
-1642 -1676 -1832 -2089 -2149 0
-1690 -1776 -2098 -2121 -2149 0
-1642 -1676 -1832 -2038 -2089 0
-1690 -1773 -2098 -2121 -2149 0
-1642 -1676 -1832 -2038 -2090 0
-1862 -1933 -2098 -2121 -2149 0
-1642 -1676 -1832 -2026 -2113 0
-1863 -1933 -2098 -2121 -2149 0
-1642 -1676 -1832 -2015 -2026 0
-1668 -1689 -1863 -1933 -2098 -2121 -2149 0
-1642 -1676 -1832 -1860 -2015 -2026 -2048 0
